zjw uspex generated structure opt
1.0000
       5.908759     6.26668361329e-16       0.0     
         0.0        5.1171362133   -2.95438008931
         0.0            0.0         21.486398  
    P     Ni
    14    14
Selective dynamics
Direct
  0.857228            0.196612            0.160508             T   T   T
  0.374678            0.54198             0.205484             T   T   T
  0.302851            0.0278060000000001  0.162728             T   T   T
  0.109975            0.200237            0.326296             T   T   T
  0.409224            0.697358            0.324412             T   T   T
  0.62243             0.371964            0.308142             T   T   T
  0.582426            0.672758            0.047851             T   T   T
  0.158302            0.375895            0.419128             T   T   T
  0.093754            0.595289            0.071814             T   T   T
  0.823384            0.280956            0.008858             T   T   T
  0.972408            0.861018            0.431081             T   T   T
  0.417112            0.031078            0.428458             T   T   T
  0.0591              0.0624999999999999  0.022552             T   T   T
  0.938496            0.780256            0.222716             T   T   T
  0.919219            0.82975             0.110181             T   T   T
  0.630709            0.366395            0.208178             T   T   T
  0.23619             0.332174            0.112303             T   T   T
  0.81898             0.451302            0.419354             T   T   T
  0.538456            0.731302            0.431642             T   T   T
  0.651052            0.329449            0.09625              T   T   T
  0.428663            0.933341            0.0254790000000001   T   T   T
  0.497292            0.824671            0.131705             T   T   T
  0.0374489999999999  0.469727            0.267656             T   T   T
  0.691415            0.954544            0.2425               T   T   T
  0.448683            0.341463            0.490937             T   T   T
  0.687794            0.0927649999999999  0.350893             T   T   T
  0.29293             0.987213            0.281324             T   T   T
  0.825133            0.771415            0.334651             T   T   T
