zjw uspex generated structure opt
1.0000
       6.874149         0.0            0.0     
         0.0          6.874149         0.0     
         0.0            0.0         13.748298  
    P     Ni
    14    14
Selective dynamics
Direct
  0.917493            0.390759            0.292344             T   T   T
  0.180377            0.455808            0.135502             T   T   T
  0.0188320000000001  0.138032            0.388902             T   T   T
  0.918926            0.925601            0.098311             T   T   T
  0.388133            0.45421             0.3892               T   T   T
  0.574007            0.555575            0.180583             T   T   T
  0.333676            0.966206000000001   0.260544             T   T   T
  0.644279            0.0790550000000003  0.221892             T   T   T
  0.352115            0.983631            0.019237             T   T   T
  0.0091910000000001  0.516491            0.435821             T   T   T
  0.722739            0.784288            0.308988             T   T   T
  0.112386            0.813447            0.415264             T   T   T
  0.646659            0.274365            0.361071             T   T   T
  0.72091             0.424607            0.015567             T   T   T
  0.592694            0.85332             0.107325             T   T   T
  0.00797500000000001  0.92895             0.26859              T   T   T
  0.757517            0.0959420000000001  0.480971             T   T   T
  0.392535            0.309757            0.250547             T   T   T
  0.884462            0.634475            0.18129              T   T   T
  0.436249            0.5712              0.035011             T   T   T
  0.509232            0.230748            0.091646             T   T   T
  0.442497            0.80158             0.391056             T   T   T
  0.786221            0.742275            0.467646             T   T   T
  0.857203            0.27949             0.140613             T   T   T
  0.168817            0.128162            0.142738             T   T   T
  0.215734            0.784141            0.129845             T   T   T
  0.211243            0.287136            0.489192             T   T   T
  0.193244            0.606795            0.288968             T   T   T
