# test
SYSTEM = Au
PREC = Low
ENCUT = 450
EDIFF = 1E-4
IBRION = 2
! fuck
NELMIN = 6
ALGO = Fast
LREAL = A
LPLANE = .TRUE.
NPAR = 4
NSIM = 4

ISIF = 2
NSW = 120
ISMEAR =0 ; SIGMA = 0.050
POTIM = 0.40
ISTART = 0
EDIFFG = -0.05
LWAVE = .FALSE.
LCHARG = .FALSE.
