zjw uspex generated structure opt
1.0000
       5.908759     6.26668361329e-16       0.0     
         0.0        5.1171362133   -2.95438008931
         0.0            0.0         21.486398  
    P     Ni
    14    14
Selective dynamics
Direct
  0.946982            0.593367            0.169208             T   T   T
  0.0703939999999999  0.11761             0.199069             T   T   T
  0.531172            0.782512            0.170188             T   T   T
  0.165292            0.787386            0.425576             T   T   T
  0.423869            0.365516            0.410732             T   T   T
  0.799065            0.030892            0.427614             T   T   T
  0.128279            0.314109            0.334822             T   T   T
  0.708046            0.020196            0.312496             T   T   T
  0.02772             0.67034             0.307555             T   T   T
  0.906395            0.130077            0.059056             T   T   T
  0.061493            0.688285            0.070989             T   T   T
  0.405891            0.278914            0.063475             T   T   T
  0.440269            0.719957            0.498805             T   T   T
  0.524564            0.329914            0.265664             T   T   T
  0.484005            0.969848            0.0870610000000001   T   T   T
  0.148873            0.398277            0.128512             T   T   T
  0.69345             0.699237            0.0749640000000001   T   T   T
  0.656101            0.647484            0.333961             T   T   T
  0.347674            0.035742            0.341673             T   T   T
  0.810857            0.372687            0.382068             T   T   T
  0.270868            0.511506            0.245081             T   T   T
  0.250336            0.904275            0.226125             T   T   T
  0.744494            0.173881            0.212302             T   T   T
  0.548259            0.137076            0.47862              T   T   T
  0.019328            0.439044            0.488273             T   T   T
  0.763223            0.663252            0.459869             T   T   T
  0.52813             0.398436            0.165306             T   T   T
  0.134989            0.103508            0.480458             T   T   T
