zjw uspex generated structure opt       
   1.00000000000000     
     6.0499999999999998    0.0000000000000000    0.0000000000000000
     0.0000000000000000    4.8810000000000002    0.0000000000000000
     0.0000000000000000    0.0000000000000000   22.0000000000000000
   P    Ni
    14    14
Selective dynamics
Direct
  0.6084471231023323  0.8898919025344306  0.1578617567286879   T   T   T
  0.1360703955272076  0.6975839452382365  0.0424469062833411   T   T   T
  0.7975305059343294  0.4487915747209437  0.2609847739171651   T   T   T
 -0.0533784042128210  0.6344400137598775  0.5205096367576648   T   T   T
  0.7428702968888398  0.7462999650503873  0.0453476714321325   T   T   T
  0.2313484311657907  0.3443248364590151  0.1672571041804508   T   T   T
  0.0617895701294073  0.7749586919002199  0.2359869318344739   T   T   T
  0.3136300976639392  0.3079771544740874  0.3100702030724229   T   T   T
  0.3236391387018361 -0.0527354740949113  0.5003267968761740   T   T   T
  0.0514430011097755  0.1592333272098165  0.4135370026607655   T   T   T
  0.0879261703103362  0.7236214955629936  0.3939409794221287   T   T   T
  0.6379671416327668  0.3320802255469616  0.4761037022282168   T   T   T
  0.6481840086547465  0.8487530301244857  0.3445259034151373   T   T   T
  0.0395385629213987  0.2831768836949261  0.0687501779064210   T   T   T
  0.4631745745244376  0.5555033046868414  0.1031776388739274   T   T   T
  0.5712693794417287  0.0806739031610822  0.2536817639520189   T   T   T
  0.3037677745849151  0.0193666252308651  0.1001147802307124   T   T   T
  0.4561425691951598  0.5772980839409855  0.2251817168021754   T   T   T
  0.9196978209132562  0.1227541300648380  0.1860137148954100   T   T   T
 -0.0354102106253028  0.1050169633773326  0.3067801164872168   T   T   T
  0.7009435540195568  0.1747008075828894  0.0799854721152745   T   T   T
  0.2959827703298769  0.7939289572103443  0.3145424670542649   T   T   T
  0.2561732610845200  0.5009867077546584  0.4705279934168574   T   T   T
 -0.0357196814992069  0.1307148173055679  0.5098750103621127   T   T   T
  0.9345102863712855  0.6285961346965785  0.1353131986195408   T   T   T
  0.6619950269028594  0.7964340684104915  0.4661493227489046   T   T   T
  0.4299221637864114  0.1260108664712003  0.4010304932502733   T   T   T
  0.7871416714406219  0.4586430579248438  0.3787687644761562   T   T   T
 
  0.00000000E+00  0.00000000E+00  0.00000000E+00
  0.00000000E+00  0.00000000E+00  0.00000000E+00
  0.00000000E+00  0.00000000E+00  0.00000000E+00
  0.00000000E+00  0.00000000E+00  0.00000000E+00
  0.00000000E+00  0.00000000E+00  0.00000000E+00
  0.00000000E+00  0.00000000E+00  0.00000000E+00
  0.00000000E+00  0.00000000E+00  0.00000000E+00
  0.00000000E+00  0.00000000E+00  0.00000000E+00
  0.00000000E+00  0.00000000E+00  0.00000000E+00
  0.00000000E+00  0.00000000E+00  0.00000000E+00
  0.00000000E+00  0.00000000E+00  0.00000000E+00
  0.00000000E+00  0.00000000E+00  0.00000000E+00
  0.00000000E+00  0.00000000E+00  0.00000000E+00
  0.00000000E+00  0.00000000E+00  0.00000000E+00
  0.00000000E+00  0.00000000E+00  0.00000000E+00
  0.00000000E+00  0.00000000E+00  0.00000000E+00
  0.00000000E+00  0.00000000E+00  0.00000000E+00
  0.00000000E+00  0.00000000E+00  0.00000000E+00
  0.00000000E+00  0.00000000E+00  0.00000000E+00
  0.00000000E+00  0.00000000E+00  0.00000000E+00
  0.00000000E+00  0.00000000E+00  0.00000000E+00
  0.00000000E+00  0.00000000E+00  0.00000000E+00
  0.00000000E+00  0.00000000E+00  0.00000000E+00
  0.00000000E+00  0.00000000E+00  0.00000000E+00
  0.00000000E+00  0.00000000E+00  0.00000000E+00
  0.00000000E+00  0.00000000E+00  0.00000000E+00
  0.00000000E+00  0.00000000E+00  0.00000000E+00
  0.00000000E+00  0.00000000E+00  0.00000000E+00
