zjw uspex generated structure opt
1.0000
       5.908759     6.26668361329e-16       0.0     
         0.0        5.1171362133   -2.95438008931
         0.0            0.0         21.486398  
    P     Ni
    14    14
Selective dynamics
Direct
  0.400585            0.408245            0.193688             T   T   T
  0.709236            0.083429            0.195239             T   T   T
  0.875809            0.57296             0.187537             T   T   T
  0.057312            0.684476            0.301525             T   T   T
  0.435107            0.281882            0.311888             T   T   T
  0.687108            0.0890489999999999  0.308338             T   T   T
  0.655459            0.306331            0.049407             T   T   T
  0.677784            0.333033            0.44616              T   T   T
  0.974356            0.224775            0.390937             T   T   T
  0.746576            0.774272            0.394762             T   T   T
  0.291682            0.0728499999999999  0.401649             T   T   T
  0.245307            0.982877            0.110835             T   T   T
  0.938338            0.219839            0.10486              T   T   T
  0.81137             0.749359            0.098615             T   T   T
  0.252043            0.04235             0.006624             T   T   T
  0.918056            0.172695            0.496467             T   T   T
  0.770944            0.696606            0.496135             T   T   T
  0.087402            0.597489            0.051137             T   T   T
  0.36979             0.40552             0.089297             T   T   T
  0.54889             0.886987            0.0642               T   T   T
  0.50217             0.893875            0.444196             T   T   T
  0.040921            0.645256            0.405463             T   T   T
  0.335991            0.437276            0.446447             T   T   T
  0.401242            0.638012            0.334957             T   T   T
  0.319907            0.728737            0.170887             T   T   T
  0.214633            0.019675            0.23753              T   T   T
  0.050584            0.356448            0.251637             T   T   T
  0.721876            0.752209            0.25191              T   T   T
