zjw uspex generated structure opt
1.0000
         6.05           0.0            0.0     
         0.0           4.881           0.0     
         0.0            0.0            22.0    
    P     Ni
    14    14
Selective dynamics
Direct
  0.175903            0.450862            0.342254             T   T   T
  0.882065            0.0117350000000001  0.317448             T   T   T
  0.941281            0.802816            0.472758             T   T   T
  0.40446             0.409863            0.431231             T   T   T
  0.957812            0.357388            0.480435             T   T   T
  0.249989            0.979822            0.218709             T   T   T
  0.375958            0.231439            0.034326             T   T   T
  0.051739            0.341728            0.183962             T   T   T
  0.516787            0.433342            0.169699             T   T   T
  0.0744620000000001  0.860127            0.069052             T   T   T
  0.502732            0.982139            0.147739             T   T   T
  0.493804            0.821472            0.387482             T   T   T
  0.765846            0.576678            0.103123             T   T   T
  0.774014            0.58107             0.326573             T   T   T
  0.638095            0.517259            0.008518             T   T   T
  0.678547            0.983818            0.055405             T   T   T
  0.372731            0.639628            0.087661             T   T   T
  0.0497379999999999  0.311572            0.079497             T   T   T
  0.753189            0.287311            0.244542             T   T   T
  0.259203            0.890402            0.316235             T   T   T
  0.085599            0.106632            0.404797             T   T   T
  0.597616            0.793566            0.24312              T   T   T
  0.873181            0.953116            0.156608             T   T   T
  0.333895            0.391548            0.255053             T   T   T
  0.005222            0.685317            0.243792             T   T   T
  0.331302            0.845766            0.478944             T   T   T
  0.683192            0.102302            0.44496              T   T   T
  0.560085            0.220301            0.340939             T   T   T
