zjw uspex generated structure opt
1.0000
         6.05           0.0            0.0     
         0.0           4.881           0.0     
         0.0            0.0            22.0    
    P     Ni
    14    14
Selective dynamics
Direct
  0.0314029999999999  0.157346            0.126896             T   T   T
  0.093135            0.0573050000000001  0.369277             T   T   T
  0.250065            0.34263             0.494864             T   T   T
  0.659618            0.160333            0.243693             T   T   T
  0.793306            0.572833            0.436509             T   T   T
  0.755904            0.487812            0.032731             T   T   T
  0.534803            0.589717            0.335734             T   T   T
  0.305466            0.332145            0.264408             T   T   T
  0.716246            0.482393            0.160471             T   T   T
  0.212482            0.821305            0.495822             T   T   T
  0.781084            0.0145580000000001  0.43849              T   T   T
  0.957833            0.639685            0.230864             T   T   T
  0.345523            0.912371            0.100472             T   T   T
  0.503519            0.838472            0.185722             T   T   T
  0.950606            0.104909            0.025725             T   T   T
  0.458309            0.458994            0.083176             T   T   T
  0.464092            0.066476            0.32645              T   T   T
  0.876261            0.373176            0.312513             T   T   T
  0.125447            0.480876            0.406342             T   T   T
  0.531447            0.0635500000000001  0.016681             T   T   T
  0.0408679999999999  0.0767180000000001  0.225108             T   T   T
  0.24161             0.495199            0.176165             T   T   T
  0.511385            0.322228            0.417056             T   T   T
  0.0757259999999999  0.569233            0.074482             T   T   T
  0.740871            0.848761            0.10071              T   T   T
  0.42169             0.822409            0.417959             T   T   T
  0.201174            0.714159            0.307954             T   T   T
  0.817676            0.865508            0.308188             T   T   T
