zjw uspex generated structure opt
1.0000
         6.05           0.0            0.0     
         0.0           4.881           0.0     
         0.0            0.0            22.0    
    P     Ni
    14    14
Selective dynamics
Direct
  0.781412            0.611917            0.133475             T   T   T
  0.409782            0.661876            0.047583             T   T   T
  0.33951             0.421846            0.241927             T   T   T
  0.827811            0.173211            0.113599             T   T   T
  0.218883            0.0854840000000001  0.176889             T   T   T
  0.272779            0.231856            0.056886             T   T   T
  0.873027            0.195782            0.468784             T   T   T
  0.546867            0.791321            0.321723             T   T   T
  0.00681399999999998  0.562265            0.016168             T   T   T
  0.640079            0.75602             0.444675             T   T   T
  0.250009            0.120653            0.455209             T   T   T
  0.155558            0.836376            0.364845             T   T   T
  0.874571            0.948613            0.268292             T   T   T
  0.935497            0.375397            0.293692             T   T   T
  0.491995            0.982169            0.116574             T   T   T
  0.034579            0.639065            0.211966             T   T   T
  0.0969110000000001  0.840481            0.100761             T   T   T
  0.759628            0.871903            0.036866             T   T   T
  0.594262            0.751573            0.21766              T   T   T
  0.374731            0.474251            0.142059             T   T   T
  0.700353            0.254729            0.206126             T   T   T
  0.21587             0.304285            0.360081             T   T   T
  0.275288            0.662869            0.451487             T   T   T
  0.267393            0.978681            0.272177             T   T   T
  0.57617             0.34853             0.312586             T   T   T
  0.805392            0.00945900000000009  0.371902             T   T   T
  0.556749            0.310687            0.426734             T   T   T
  0.894653            0.530889            0.391638             T   T   T
