zjw uspex generated structure opt
1.0000
         6.05           0.0            0.0     
         0.0           4.881           0.0     
         0.0            0.0            22.0    
    P     Ni
    14    14
Selective dynamics
Direct
  0.975892            0.0676530000000001  0.279651             T   T   T
  0.209178            0.643128            0.180187             T   T   T
  0.24633             0.0184500000000001  0.047612             T   T   T
  0.781249            0.946073            0.034678             T   T   T
  0.861901            0.642755            0.285708             T   T   T
  0.268481            0.214218            0.162748             T   T   T
  0.653823            0.053674            0.189507             T   T   T
  0.723793            0.544738            0.124852             T   T   T
  0.399988            0.151255            0.332384             T   T   T
  0.739874            0.211197            0.347727             T   T   T
  0.105001            0.947214            0.441723             T   T   T
  0.643223            0.588934            0.448648             T   T   T
  0.202081            0.426921            0.016052             T   T   T
  0.995987            0.536366            0.422411             T   T   T
  0.82171             0.44107             0.027449             T   T   T
  0.549836            0.606212            0.331225             T   T   T
  0.906184            0.367328            0.208362             T   T   T
  0.576627            0.619612            0.213202             T   T   T
  0.06304             0.688958            0.090324             T   T   T
  0.544487            0.165991            0.094313             T   T   T
  0.94724             0.147141            0.112742             T   T   T
  0.329706            0.958203            0.245494             T   T   T
  0.223189            0.427814            0.271532             T   T   T
  0.47751             0.686303            0.048069             T   T   T
  0.151283            0.781535            0.34569              T   T   T
  0.789392            0.143642            0.443277             T   T   T
  0.337457            0.396647            0.419108             T   T   T
  0.449293            0.919533            0.417752             T   T   T
