zjw uspex generated structure opt
1.0000
         6.05           0.0            0.0     
         0.0           4.881           0.0     
         0.0            0.0            22.0    
    P     Ni
    14    14
Selective dynamics
Direct
  0.975378            0.868974            0.241187             T   T   T
  0.81286             0.0514730000000001  0.393283             T   T   T
  0.237625            0.639535            0.452296             T   T   T
  0.255058            0.330432            0.108189             T   T   T
  0.410734            0.916308            0.20727              T   T   T
  0.125003            0.555568            0.310505             T   T   T
  0.923283            0.103282            0.489493             T   T   T
  0.814489            0.0893690000000001  0.093612             T   T   T
  0.439935            0.373665            0.189643             T   T   T
  0.463854            0.276497            0.383618             T   T   T
  0.908627            0.624878            0.497827             T   T   T
  0.487414            0.160769            0.042694             T   T   T
  0.64495             0.433073            0.285563             T   T   T
  0.613222            0.681542            0.080949             T   T   T
  0.0956070000000001  0.475363            0.209085             T   T   T
  0.634522            0.869936            0.285814             T   T   T
  0.13239             0.879262            0.372906             T   T   T
  0.281822            0.777626            0.050534             T   T   T
  0.271045            0.146587            0.46231              T   T   T
  0.330887            0.207988            0.290679             T   T   T
  0.109742            0.941629            0.147877             T   T   T
  0.70584             0.677835            0.181444             T   T   T
  0.567138            0.498603            0.47918              T   T   T
  0.7704              0.176273            0.192046             T   T   T
  0.802813            0.528963            0.37622              T   T   T
  0.506054            0.834348            0.393566             T   T   T
  0.933547            0.192402            0.302823             T   T   T
  0.952131            0.538848            0.096111             T   T   T
