zjw uspex generated structure opt
1.0000
         6.05           0.0            0.0     
         0.0           4.881           0.0     
         0.0            0.0            22.0    
    P     Ni
    14    14
Selective dynamics
Direct
  0.500024            0.836008            0.19814              T   T   T
  0.041548            0.750002            0.096331             T   T   T
  0.785653            0.464703            0.270833             T   T   T
  0.020109            0.771936            0.499283             T   T   T
  0.563047            0.805542            0.071649             T   T   T
  0.125017            0.341404            0.193749             T   T   T
  0.00199700000000006  0.798646            0.235522             T   T   T
  0.404106            0.338912            0.302106             T   T   T
  0.343755            0.0913420000000002  0.481237             T   T   T
  0.121472            0.018809            0.377436             T   T   T
  0.198608            0.584957            0.384061             T   T   T
  0.668722            0.415217            0.454001             T   T   T
  0.769409            0.823973            0.372522             T   T   T
  0.993986            0.286123            0.079169             T   T   T
  0.344252            0.545153            0.121304             T   T   T
  0.677962            0.000217000000000077  0.283578             T   T   T
  0.292063            0.049755            0.126154             T   T   T
  0.521243            0.309411            0.206175             T   T   T
  0.855134            0.0401940000000001  0.158971             T   T   T
  0.0640770000000001  0.178088            0.285858             T   T   T
  0.602734            0.246264            0.051031             T   T   T
  0.312645            0.777411            0.293258             T   T   T
  0.339727            0.57112             0.479232             T   T   T
  0.989437            0.238265            0.480806             T   T   T
  0.753               0.552989            0.135339             T   T   T
  0.676122            0.86551             0.474021             T   T   T
  0.501157            0.118236            0.386482             T   T   T
  0.869591            0.388839            0.370544             T   T   T
