zjw uspex generated structure opt
1.0000
         6.05           0.0            0.0     
         0.0           4.881           0.0     
         0.0            0.0            22.0    
    P     Ni
    14    14
Selective dynamics
Direct
  0.986637            0.259295            0.008365             T   T   T
  0.253757            0.695345            0.094005             T   T   T
  0.562215            0.230851            0.115385             T   T   T
  0.281592            0.479676            0.193322             T   T   T
  0.905288            0.696861            0.00937              T   T   T
  0.77518             0.15242             0.274944             T   T   T
  0.139103            0.85567             0.234787             T   T   T
  0.08851             0.346637            0.316666             T   T   T
  0.525884            0.653037            0.341474             T   T   T
  0.51097             0.148115            0.431398             T   T   T
  0.894698            0.891943            0.386335             T   T   T
  0.248827            0.660552            0.41581              T   T   T
  0.600764            0.82113             0.151066             T   T   T
  0.00503199999999998  0.187529            0.174861             T   T   T
  0.24931             0.903312            0.00012              T   T   T
  0.609539            0.610279            0.064234             T   T   T
  0.654361            0.086691            0.023752             T   T   T
  0.919581            0.888417            0.101719             T   T   T
  0.210329            0.219202            0.090497             T   T   T
  0.429304            0.320735            0.278683             T   T   T
  0.512993            0.8345              0.247683             T   T   T
  0.708979            0.432273            0.196511             T   T   T
  0.873258            0.706388            0.2932               T   T   T
  0.235963            0.928863            0.330183             T   T   T
  0.627972            0.704402            0.44326              T   T   T
  0.350143            0.412701            0.49788              T   T   T
  0.130488            0.223495            0.414555             T   T   T
  0.754309            0.328645            0.370184             T   T   T
