zjw uspex generated structure opt
1.0000
         6.05           0.0            0.0     
         0.0           4.881           0.0     
         0.0            0.0            22.0    
    P     Ni
    14    14
Selective dynamics
Direct
  0.808577            0.065048            0.025172             T   T   T
  0.384767            0.0137480000000001  0.175205             T   T   T
  0.296943            0.227101            0.049973             T   T   T
  0.828176            0.780122            0.105159             T   T   T
  0.693626            0.218158            0.146188             T   T   T
  0.324941            0.784808            0.035638             T   T   T
  0.211393            0.453067            0.216518             T   T   T
  0.12531             0.267982            0.457433             T   T   T
  0.843733            0.6985              0.389585             T   T   T
  0.150805            0.899036            0.274181             T   T   T
  0.355353            0.607195            0.414592             T   T   T
  0.533568            0.16119             0.377066             T   T   T
  0.624151            0.692745            0.269365             T   T   T
  0.982254            0.376515            0.331959             T   T   T
  0.0782919999999999  0.189868            0.137406             T   T   T
  0.983154            0.446873            0.045199             T   T   T
  0.182897            0.693842            0.12959              T   T   T
  0.583948            0.477715            0.06506              T   T   T
  0.551178            0.613293            0.174662             T   T   T
  0.841141            0.357461            0.235873             T   T   T
  0.8938              0.857413            0.205879             T   T   T
  0.046394            0.785944            0.468258             T   T   T
  0.690597            0.390459            0.453868             T   T   T
  0.318071            0.545504            0.315947             T   T   T
  0.175714            0.00133800000000008  0.372445             T   T   T
  0.595297            0.875327            0.458133             T   T   T
  0.812027            0.998408            0.317213             T   T   T
  0.453722            0.131734            0.270482             T   T   T
