zjw uspex generated structure opt
1.0000
       5.908759     6.26668361329e-16       0.0     
         0.0        5.1171362133   -2.95438008931
         0.0            0.0         21.486398  
    P     Ni
    14    14
Selective dynamics
Direct
  0.637658            0.609772            0.450462             T   T   T
  0.027413            0.640661            0.201113             T   T   T
  0.391837            0.0277099999999999  0.450417             T   T   T
  0.359613            0.387027            0.201067             T   T   T
  0.972143            0.369754            0.449804             T   T   T
  0.616769            0.972124            0.201019             T   T   T
  0.027378            0.379932            0.048011             T   T   T
  0.639608            0.0276759999999999  0.299111             T   T   T
  0.620683            0.647009            0.048194             T   T   T
  0.972598            0.609544            0.299303             T   T   T
  0.35597             0.972961            0.048865             T   T   T
  0.390579            0.363096            0.299285             T   T   T
  0.339597            0.665659            0.375017             T   T   T
  0.674179            0.335082            0.125086             T   T   T
  0.276154            0.288518            0.416659             T   T   T
  0.991782            0.285988            0.164954             T   T   T
  0.714422            0.991               0.416703             T   T   T
  0.714594            0.702595            0.164527             T   T   T
  0.013557            0.727361            0.415561             T   T   T
  0.299599            0.011099            0.164828             T   T   T
  0.99142             0.700268            0.085102             T   T   T
  0.282811            0.989962            0.333729             T   T   T
  0.303707            0.292202            0.085465             T   T   T
  0.012815            0.28975             0.33395              T   T   T
  0.711813            0.010424            0.085356             T   T   T
  0.712646            0.723756            0.333641             T   T   T
  0.001969            0.001163            0.002621             T   T   T
  0.002225            0.000321            0.247909             T   T   T
