zjw uspex generated structure opt
1.0000
       5.908759     6.26668361329e-16       0.0     
         0.0        5.1171362133   -2.95438008931
         0.0            0.0         21.486398  
    P     Ni
    14    14
Selective dynamics
Direct
  0.428466            0.149168            0.164264             T   T   T
  0.030211            0.274924            0.248094             T   T   T
  0.313509            0.645443            0.418357             T   T   T
  0.626337            0.187415            0.419049             T   T   T
  0.322505            0.979472            0.294224             T   T   T
  0.717209            0.626225            0.28706              T   T   T
  0.00870199999999995  0.253812            0.38939              T   T   T
  0.229564            0.573467            0.178445             T   T   T
  0.832793            0.28104             0.107017             T   T   T
  0.998544            0.937406            0.444423             T   T   T
  0.896194            0.521277            0.026623             T   T   T
  0.283374            0.190363            0.016699             T   T   T
  0.530996            0.997041            0.0134580000000001   T   T   T
  0.751549            0.748315            0.14739              T   T   T
  0.188041            0.255318            0.109798             T   T   T
  0.288613            0.577072            0.0191200000000001   T   T   T
  0.82285             0.864047            0.039566             T   T   T
  0.793188            0.458969            0.200417             T   T   T
  0.404003            0.305587            0.358502             T   T   T
  0.03285             0.721952            0.365675             T   T   T
  0.510617            0.871179            0.110491             T   T   T
  0.625259            0.533713            0.457527             T   T   T
  0.324282            0.608022            0.298846             T   T   T
  0.757686            0.273477            0.312199             T   T   T
  0.6856              0.847086            0.367047             T   T   T
  0.609301            0.94607             0.223955             T   T   T
  0.095052            0.79022             0.110421             T   T   T
  0.052919            0.946324            0.218481             T   T   T
