zjw uspex generated structure opt
1.0000
       5.908759     6.26668361329e-16       0.0     
         0.0        5.1171362133   -2.95438008931
         0.0            0.0         21.486398  
    P     Ni
    14    14
Selective dynamics
Direct
  0.314817            0.158768            0.206528             T   T   T
  0.143547            0.556982            0.200301             T   T   T
  0.185941            0.531598            0.411095             T   T   T
  0.219451            0.230139            0.303483             T   T   T
  0.427176            0.749938            0.044785             T   T   T
  0.832814            0.613642            0.294699             T   T   T
  0.125324            0.989333            0.473105             T   T   T
  0.094486            0.0299579999999999  0.071993             T   T   T
  0.886092            0.249776            0.114741             T   T   T
  0.877198            0.063361            0.411245             T   T   T
  0.79638             0.282169            0.015127             T   T   T
  0.438665            0.396948            0.454951             T   T   T
  0.531469            0.966378            0.313671             T   T   T
  0.871187            0.891233            0.218206             T   T   T
  0.0826699999999999  0.665818            0.099761             T   T   T
  0.309342            0.409698            0.131338             T   T   T
  0.72084             0.833429            0.123156             T   T   T
  0.736456            0.47383             0.183044             T   T   T
  0.603817            0.696512            0.368503             T   T   T
  0.11784             0.894245            0.361927             T   T   T
  0.487906            0.953672            0.453714             T   T   T
  0.639921            0.531299            0.04293              T   T   T
  0.217597            0.592634            0.306653             T   T   T
  0.493611            0.916554            0.210301             T   T   T
  0.870151            0.585594            0.445133             T   T   T
  0.860309            0.246013            0.263978             T   T   T
  0.472602            0.09694             0.104845             T   T   T
  0.56321             0.282385            0.363961             T   T   T
