zjw uspex generated structure opt
1.0000
         6.05           0.0            0.0     
         0.0           4.881           0.0     
         0.0            0.0            22.0    
    P     Ni
    14    14
Selective dynamics
Direct
  0.011039            0.843655            0.424309             T   T   T
  0.572822            0.859742            0.214347             T   T   T
  0.127343            0.411119            0.014575             T   T   T
  0.570948            0.982422            0.365227             T   T   T
  0.515625            0.292487            0.438216             T   T   T
  0.685352            0.946809            0.064566             T   T   T
  0.827266            0.423411            0.177974             T   T   T
  0.09375             0.836838            0.314626             T   T   T
  0.267916            0.31763             0.122186             T   T   T
  0.057166            0.346574            0.4                  T   T   T
  0.221439            0.873586            0.117356             T   T   T
  0.363239            0.893879            0.486184             T   T   T
  0.189848            0.053788            0.231133             T   T   T
  0.542752            0.3572              0.313773             T   T   T
  0.833925            0.119838            0.255644             T   T   T
  0.895015            0.320866            0.085729             T   T   T
  0.17354             0.365293            0.303646             T   T   T
  0.840627            0.189134            0.476837             T   T   T
  0.873562            0.8863              0.148844             T   T   T
  0.807899            0.61435             0.270873             T   T   T
  0.482652            0.328954            0.215754             T   T   T
  0.348324            0.64125             0.387177             T   T   T
  0.476379            0.297854            0.03846              T   T   T
  0.74677             0.589092            0.380692             T   T   T
  0.533001            0.635595            0.126193             T   T   T
  0.038377            0.836608            0.032725             T   T   T
  0.154776            0.61435             0.201511             T   T   T
  0.684296            0.677865            0.487732             T   T   T
