zjw uspex generated structure opt
1.0000
       5.908759     6.26668361329e-16       0.0     
         0.0        5.1171362133   -2.95438008931
         0.0            0.0         21.486398  
    P     Ni
    14    14
Selective dynamics
Direct
  0.483358            0.24683             0.164659             T   T   T
  0.804352            0.83782             0.238047             T   T   T
  0.995923            0.504895            0.460838             T   T   T
  0.345007            0.061655            0.401276             T   T   T
  0.310592            0.584169            0.029513             T   T   T
  0.750337            0.480103            0.321371             T   T   T
  0.177238            0.396002            0.268007             T   T   T
  0.158509            0.537756            0.174558             T   T   T
  0.811571            0.279214            0.071903             T   T   T
  0.975634            0.214889            0.396188             T   T   T
  0.557579            0.535274            0.460703             T   T   T
  0.185805            0.061591            0.018431             T   T   T
  0.344713            0.780248            0.321924             T   T   T
  0.906389            0.687769            0.0874730000000001   T   T   T
  0.182111            0.2833              0.099862             T   T   T
  0.588645            0.659115            0.144768             T   T   T
  0.738992            0.880461            0.0321440000000001   T   T   T
  0.803187            0.151397            0.166154             T   T   T
  0.389377            0.425241            0.364588             T   T   T
  0.0384999999999999  0.885429            0.32367              T   T   T
  0.598281            0.193638            0.487104             T   T   T
  0.586142            0.87779             0.404999             T   T   T
  0.451093            0.860103            0.226739             T   T   T
  0.790519            0.137589            0.303106             T   T   T
  0.95978             0.847702            0.438384             T   T   T
  0.42025             0.222402            0.263818             T   T   T
  0.386419            0.932489            0.0850930000000001   T   T   T
  0.092252            0.886892            0.171766             T   T   T
