zjw uspex generated structure opt
1.0000
       5.908759     6.26668361329e-16       0.0     
         0.0        5.1171362133   -2.95438008931
         0.0            0.0         21.486398  
    P     Ni
    14    14
Selective dynamics
Direct
  0.190343            0.147027            0.232219             T   T   T
  0.074384            0.666241            0.14209              T   T   T
  0.594744            0.814487            0.178074             T   T   T
  0.71703             0.43406             0.227638             T   T   T
  0.270932            0.723524            0.32768              T   T   T
  0.797106            0.355756            0.451043             T   T   T
  0.812396            0.813948            0.0441810000000001   T   T   T
  0.469709            0.158254            0.079852             T   T   T
  0.125892            0.311342            0.071942             T   T   T
  0.666667            0.739583            0.440819             T   T   T
  0.556863            0.567559            0.3461               T   T   T
  0.315165            0.225486            0.440812             T   T   T
  0.21472             0.880935            0.00371800000000007   T   T   T
  0.894625            0.109118            0.298334             T   T   T
  0.010999            0.99563             0.140902             T   T   T
  0.421787            0.404596            0.155893             T   T   T
  0.770005            0.235517            0.149743             T   T   T
  0.950168            0.137219            0.400894             T   T   T
  0.020623            0.7354              0.404327             T   T   T
  0.922599            0.767967            0.286382             T   T   T
  0.231879            0.521334            0.479341             T   T   T
  0.425015            0.753402            0.083712             T   T   T
  0.14772             0.524038            0.233958             T   T   T
  0.500498            0.011584            0.252274             T   T   T
  0.793435            0.367514            0.334865             T   T   T
  0.302495            0.143882            0.337288             T   T   T
  0.856428            0.459266            0.04926              T   T   T
  0.48841             0.974021            0.418096             T   T   T
