zjw uspex generated structure opt
1.0000
       5.908759     6.26668361329e-16       0.0     
         0.0        5.1171362133   -2.95438008931
         0.0            0.0         21.486398  
    P     Ni
    14    14
Selective dynamics
Direct
  0.781253            0.56473             0.197389             T   T   T
  0.190014            0.240835            0.148568             T   T   T
  0.619988            0.976596            0.182325             T   T   T
  0.29916             0.857728            0.43343              T   T   T
  0.502786            0.376557            0.427307             T   T   T
  0.887478            0.0312249999999999  0.420635             T   T   T
  0.088248            0.553328            0.282257             T   T   T
  0.627604            0.93887             0.338236             T   T   T
  0.981332            0.80123             0.345704             T   T   T
  0.03493             0.422984            0.040155             T   T   T
  0.982206            0.767323            0.067394             T   T   T
  0.478927            0.155949            0.080113             T   T   T
  0.534934            0.702113            0.014168             T   T   T
  0.246953            0.196024            0.263535             T   T   T
  0.824525            0.066008            0.09367              T   T   T
  0.310346            0.7406              0.108498             T   T   T
  0.589658            0.549637            0.109114             T   T   T
  0.393425            0.514051            0.334784             T   T   T
  0.385779            0.106359            0.349408             T   T   T
  0.849844            0.388431            0.370435             T   T   T
  0.37785             0.566371            0.212269             T   T   T
  0.198573            0.881553            0.20426              T   T   T
  0.67327             0.231951            0.258425             T   T   T
  0.655559            0.127635            0.488574             T   T   T
  0.183438            0.448124            0.445803             T   T   T
  0.879113            0.65036             0.465836             T   T   T
  0.821026            0.886009            0.258712             T   T   T
  0.206772            0.09156             0.499992             T   T   T
