zjw uspex generated structure opt
1.0000
         6.05           0.0            0.0     
         0.0           4.881           0.0     
         0.0            0.0            22.0    
    P     Ni
    14    14
Selective dynamics
Direct
  0.799307            0.750307            0.252325             T   T   T
  0.315867            0.518442            0.244108             T   T   T
  0.281162            0.343796            0.396939             T   T   T
  0.780022            0.5525              0.059096             T   T   T
  0.0907460000000001  0.334952            0.176936             T   T   T
  0.833953            0.339864            0.300001             T   T   T
  0.0421349999999999  0.55292             0.474908             T   T   T
  0.282729            0.449295            0.094003             T   T   T
  0.780627            0.265187            0.444735             T   T   T
  0.781221            0.800639            0.389913             T   T   T
  0.154406            0.875574            0.106217             T   T   T
  0.375218            0.805611            0.360077             T   T   T
  0.532192            0.407163            0.164796             T   T   T
  0.470212            0.450259            0.485536             T   T   T
  0.852024            0.913541            0.002854             T   T   T
  0.202642            0.168027            0.025416             T   T   T
  0.479367            0.946011            0.157677             T   T   T
  0.598644            0.184662            0.36054              T   T   T
  0.486893            0.809785            0.053946             T   T   T
  0.487326            0.918136            0.450819             T   T   T
  0.123549            0.896353            0.21221              T   T   T
  0.052331            0.691595            0.322342             T   T   T
  0.829088            0.660906            0.154186             T   T   T
  0.78623             0.16952             0.210868             T   T   T
  0.181168            0.197834            0.308529             T   T   T
  0.826312            0.142408            0.099406             T   T   T
  0.099505            0.960367            0.419297             T   T   T
  0.481184            0.91309             0.269448             T   T   T
