zjw uspex generated structure opt
1.0000
         6.05           0.0            0.0     
         0.0           4.881           0.0     
         0.0            0.0            22.0    
    P     Ni
    14    14
Selective dynamics
Direct
  0.836944            0.447495            0.473782             T   T   T
  0.520568            0.643272            0.104487             T   T   T
  0.062859            0.232143            0.064333             T   T   T
  0.487429            0.072162            0.027598             T   T   T
  0.045217            0.896558            0.413615             T   T   T
  0.880662            0.794874            0.1                  T   T   T
  0.28139             0.621194            0.226889             T   T   T
  0.6875              0.986868            0.243447             T   T   T
  0.768643            0.567819            0.235264             T   T   T
  0.618517            0.697355            0.36551              T   T   T
  0.139737            0.392856            0.301796             T   T   T
  0.475423            0.512109            0.007851             T   T   T
  0.372606            0.0176410000000001  0.34388              T   T   T
  0.838911            0.205174            0.149676             T   T   T
  0.116247            0.654423            0.026546             T   T   T
  0.834849            0.995177            0.006052             T   T   T
  0.174162            0.234054            0.470188             T   T   T
  0.00100799999999999  0.873684            0.197437             T   T   T
  0.97112             0.993912            0.314061             T   T   T
  0.626859            0.329095            0.30683              T   T   T
  0.146605            0.500537            0.137361             T   T   T
  0.327656            0.04983             0.245898             T   T   T
  0.520931            0.353289            0.176978             T   T   T
  0.31044             0.996973            0.113052             T   T   T
  0.395374            0.842746            0.445933             T   T   T
  0.715015            0.104171            0.403698             T   T   T
  0.352386            0.41866             0.38498              T   T   T
  0.943549            0.500089            0.379131             T   T   T
