zjw uspex generated structure opt
1.0000
     6.7080443409   1.37073988226   1.77022479594
         0.0        6.84666341817   1.77022504626
         0.0            0.0         14.143619  
    P     Ni
    14    14
Selective dynamics
Direct
  0.658894            0.688716            0.372699             T   T   T
  0.195467            0.459819            0.417411             T   T   T
  0.939705            0.21584             0.259224             T   T   T
  0.68297             0.0806889999999999  0.095146             T   T   T
  0.193069            0.96206             0.00618499999999998   T   T   T
  0.9309              0.688306            0.419144             T   T   T
  0.247194            0.820822999999999   0.24817              T   T   T
  0.532793            0.11227             0.407602             T   T   T
  0.939806            0.734985999999999   0.171069             T   T   T
  0.210234            0.223376            0.32924              T   T   T
  0.768671            0.636522            0.0801729999999998   T   T   T
  0.422868            0.477238            0.105899             T   T   T
  0.997144            0.270822            0.022994             T   T   T
  0.789356            0.211776            0.433735             T   T   T
  0.562597            0.824913999999999   0.181326             T   T   T
  0.407596            0.514099            0.267349             T   T   T
  0.763005            0.506828            0.268597             T   T   T
  0.45235             0.19371             0.208125             T   T   T
  0.492248            0.435872            0.444229             T   T   T
  0.492892            0.767933            0.017364             T   T   T
  0.749869            0.327261            0.144911             T   T   T
  0.366674            0.111269            0.065446             T   T   T
  0.389377            0.913659999999999   0.354403             T   T   T
  0.739993            0.970933            0.279474             T   T   T
  0.036594            0.015763            0.155133             T   T   T
  0.034551            0.960323            0.380654             T   T   T
  0.135321            0.440352            0.203124             T   T   T
  0.160399            0.657153            0.0327719999999999   T   T   T
