zjw uspex generated structure opt
1.0000
       5.908759     6.26668361329e-16       0.0     
         0.0        5.1171362133   -2.95438008931
         0.0            0.0         21.486398  
    P     Ni
    14    14
Selective dynamics
Direct
  0.1559              0.00682899999999996  0.222539             T   T   T
  0.01349             0.38856             0.161592             T   T   T
  0.614701            0.588598            0.16669              T   T   T
  0.282385            0.283336            0.321899             T   T   T
  0.812365            0.781407            0.399968             T   T   T
  0.715855            0.466359            0.293529             T   T   T
  0.718093            0.707928            0.0532               T   T   T
  0.370489            0.991505            0.0610110000000001   T   T   T
  0.029323            0.405345            0.026276             T   T   T
  0.780543            0.103685            0.445914             T   T   T
  0.445295            0.820368            0.356902             T   T   T
  0.33134             0.308312            0.445619             T   T   T
  0.450608            0.789816            0.223146             T   T   T
  0.814461            0.000982000000000131  0.277216             T   T   T
  0.018498            0.763562            0.135168             T   T   T
  0.27239             0.22838             0.134485             T   T   T
  0.766033            0.003899            0.120916             T   T   T
  0.101451            0.450407            0.38704              T   T   T
  0.200586            0.883455            0.435936             T   T   T
  0.076327            0.833924            0.322031             T   T   T
  0.4307              0.700524            0.485517             T   T   T
  0.336612            0.638409            0.09664              T   T   T
  0.075191            0.454495            0.263914             T   T   T
  0.068941            0.061605            0.024623             T   T   T
  0.766529            0.509576            0.47225              T   T   T
  0.61283             0.22362             0.207602             T   T   T
  0.705334            0.355511            0.085247             T   T   T
  0.583707            0.231025            0.379384             T   T   T
