zjw uspex generated structure opt
1.0000
         6.05           0.0            0.0     
         0.0           4.881           0.0     
         0.0            0.0            22.0    
    P     Ni
    14    14
Selective dynamics
Direct
  0.845861            0.160346            0.443777             T   T   T
  0.863235            0.123471            0.207542             T   T   T
  0.0316520000000001  0.942668            0.128335             T   T   T
  0.499937            0.407301            0.128194             T   T   T
  0.45245             0.361766            0.355344             T   T   T
  0.660294            0.0804550000000001  0.308416             T   T   T
  0.128701            0.089879            0.269084             T   T   T
  0.686453            0.83816             0.00156              T   T   T
  0.952829            0.602545            0.410808             T   T   T
  0.188413            0.482112            0.218923             T   T   T
  0.625113            0.802178            0.193875             T   T   T
  0.343755            0.837233            0.385427             T   T   T
  0.406252            0.122918            0.018255             T   T   T
  0.046382            0.499953            0.054173             T   T   T
  0.590058            0.506313            0.439275             T   T   T
  0.226578            0.225582            0.432341             T   T   T
  0.124401            0.474367            0.325581             T   T   T
  0.879815            0.517922            0.150764             T   T   T
  0.605335            0.40033             0.233298             T   T   T
  0.67173             0.971387            0.097274             T   T   T
  0.347632            0.07692             0.178189             T   T   T
  0.025266            0.0715940000000001  0.032287             T   T   T
  0.215868            0.706678            0.476175             T   T   T
  0.320062            0.74597             0.085433             T   T   T
  0.388984            0.787392            0.274546             T   T   T
  0.977812            0.998277            0.356809             T   T   T
  0.684027            0.429813            0.045688             T   T   T
  0.726149            0.635985            0.330722             T   T   T
