zjw uspex generated structure opt
1.0000
         6.05           0.0            0.0     
         0.0           4.881           0.0     
         0.0            0.0            22.0    
    P     Ni
    14    14
Selective dynamics
Direct
  0.216998            0.769401            0.466107             T   T   T
  0.77069             0.838808            0.226551             T   T   T
  0.061926            0.443506            0.023187             T   T   T
  0.562775            0.021781            0.379981             T   T   T
  0.502504            0.303989            0.456295             T   T   T
  0.703085            0.173097            0.163669             T   T   T
  0.190468            0.23201             0.214148             T   T   T
  0.909632            0.92937             0.385994             T   T   T
  0.387256            0.289354            0.122474             T   T   T
  0.953117            0.499913            0.358328             T   T   T
  0.126379            0.731982            0.097855             T   T   T
  0.671865            0.862584            0.038439             T   T   T
  0.392228            0.896372            0.26964              T   T   T
  0.593816            0.377908            0.319456             T   T   T
  0.023068            0.957479            0.292986             T   T   T
  0.936598            0.100128            0.091021             T   T   T
  0.241797            0.484944            0.298469             T   T   T
  0.938802            0.0715200000000001  0.479805             T   T   T
  0.835883            0.576377            0.14391              T   T   T
  0.881969            0.418386            0.255907             T   T   T
  0.515025            0.499084            0.218384             T   T   T
  0.414811            0.631403            0.391425             T   T   T
  0.661468            0.394796            0.045897             T   T   T
  0.191243            0.1953              0.392267             T   T   T
  0.466912            0.742393            0.117962             T   T   T
  0.322758            0.076241            0.033513             T   T   T
  0.155989            0.767032            0.19824              T   T   T
  0.798627            0.599143            0.454179             T   T   T
