zjw uspex generated structure opt
1.0000
       5.632137         0.0            0.0     
         0.0          5.632137         0.0     
         0.0            0.0         20.480498  
    P     Ni
    14    14
Selective dynamics
Direct
  0.739414            0.427249            0.212303             T   T   T
  0.19975             0.783214            0.162082             T   T   T
  0.760126            0.768867            0.436986             T   T   T
  0.019442            0.285922            0.402781             T   T   T
  0.10526             0.172618            0.203645             T   T   T
  0.786798            0.949013999999999   0.151794             T   T   T
  0.270815            0.939564999999999   0.379868             T   T   T
  0.732919            0.149907            0.46761              T   T   T
  0.236371            0.197129            0.034188             T   T   T
  0.567726            0.425971            0.073967             T   T   T
  0.599999            0.291634            0.3337               T   T   T
  0.804512999999999   0.726838            0.275905             T   T   T
  0.333343            0.683319            0.467501             T   T   T
  0.362362            0.514719            0.229931             T   T   T
  0.210794            0.84237             0.271337             T   T   T
  0.867278            0.017792            0.342566             T   T   T
  0.229615            0.421251            0.124374             T   T   T
  0.621568            0.791499            0.038453             T   T   T
  0.01921             0.631947            0.365121             T   T   T
  0.22266             0.275449            0.303726             T   T   T
  0.85641             0.172524            0.066451             T   T   T
  0.165934            0.830292            0.055385             T   T   T
  0.966933            0.512947            0.494191             T   T   T
  0.609491            0.057071            0.244212             T   T   T
  0.858542            0.595669            0.122611             T   T   T
  0.437497            0.060214            0.12787              T   T   T
  0.533314            0.658375            0.353358             T   T   T
  0.390129            0.28187             0.430669             T   T   T
