zjw uspex generated structure opt
1.0000
         6.05           0.0            0.0     
         0.0           4.881           0.0     
         0.0            0.0            22.0    
    P     Ni
    14    14
Selective dynamics
Direct
  0.198335            0.0866730000000001  0.092183             T   T   T
  0.063577            0.486097            0.113921             T   T   T
  0.558586            0.60656             0.110901             T   T   T
  0.768618            0.0492910000000001  0.045011             T   T   T
  0.792008            0.39286             0.177874             T   T   T
  0.473867            0.13089             0.349207             T   T   T
  0.244507            0.670127            0.250012             T   T   T
  0.557992            0.951432            0.218719             T   T   T
  0.659192            0.747237            0.476711             T   T   T
  0.840976            0.589166            0.343964             T   T   T
  0.342157            0.708991            0.408315             T   T   T
  0.0192360000000001  0.125106            0.242947             T   T   T
  0.128362            0.518471            0.01423              T   T   T
  0.609373            0.173218            0.444776             T   T   T
  0.548918            0.125853            0.120633             T   T   T
  0.280859            0.781498            0.157555             T   T   T
  0.877266            0.86325             0.135747             T   T   T
  0.090111            0.030933            0.002166             T   T   T
  0.489804            0.397404            0.025341             T   T   T
  0.510324            0.716316            0.317503             T   T   T
  0.180451            0.368999            0.317446             T   T   T
  0.852524            0.732047            0.247007             T   T   T
  0.264666            0.277729            0.425608             T   T   T
  0.678035            0.296708            0.276941             T   T   T
  0.124197            0.87764             0.331852             T   T   T
  0.98036             0.680461            0.43132              T   T   T
  0.320089            0.297823            0.201825             T   T   T
  0.886362            0.191845            0.387237             T   T   T
