zjw uspex generated structure opt
1.0000
         6.05           0.0            0.0     
         0.0           4.881           0.0     
         0.0            0.0            22.0    
    P     Ni
    14    14
Selective dynamics
Direct
  0.618745            0.972247            0.126849             T   T   T
  0.091747            0.08919             0.076944             T   T   T
  0.109237            0.648474            0.094728             T   T   T
  0.89444             0.768991            0.467462             T   T   T
  0.421356            0.138089            0.486266             T   T   T
  0.408618            0.696639            0.014457             T   T   T
  0.293099            0.681103            0.335809             T   T   T
  0.0783699999999999  0.148662            0.32796              T   T   T
  0.627424            0.30357             0.360473             T   T   T
  0.317134            0.95743             0.20012              T   T   T
  0.593752            0.551467            0.22292              T   T   T
  0.938536            0.375414            0.250972             T   T   T
  0.628522            0.875783            0.330854             T   T   T
  0.722231            0.397455            0.137499             T   T   T
  0.741545            0.646954            0.058808             T   T   T
  0.777828            0.12202             0.023347             T   T   T
  0.411345            0.326274            0.081577             T   T   T
  0.629817            0.479457            0.451488             T   T   T
  0.913214            0.142247            0.413334             T   T   T
  0.235489            0.81784             0.4307               T   T   T
  0.677052            0.980779            0.234563             T   T   T
  0.231372            0.518214            0.184499             T   T   T
  0.986904            0.114061            0.170572             T   T   T
  0.0574309999999999  0.803941            0.266639             T   T   T
  0.890317            0.631228            0.368299             T   T   T
  0.107659            0.424138            0.004203             T   T   T
  0.395742            0.291887            0.281082             T   T   T
  0.290811            0.325059            0.398016             T   T   T
