zjw uspex generated structure opt
1.0000
         6.05           0.0            0.0     
         0.0           4.881           0.0     
         0.0            0.0            22.0    
    P     Ni
    14    14
Selective dynamics
Direct
  0.450265            0.752204            0.213583             T   T   T
  0.113821            0.786576            0.09547              T   T   T
  0.75839             0.55383             0.281911             T   T   T
  0.985578            0.744652            0.005301             T   T   T
  0.652235            0.895447            0.087505             T   T   T
  0.182892            0.332603            0.199127             T   T   T
  0.031193            0.735651            0.228124             T   T   T
  0.744908            0.347149            0.108118             T   T   T
  0.285934            0.0450930000000001  0.466762             T   T   T
  0.089804            0.0582230000000001  0.373689             T   T   T
  0.234212            0.522988            0.372294             T   T   T
  0.628575            0.410244            0.452386             T   T   T
  0.779303            0.838869            0.393701             T   T   T
  0.620309            0.00897500000000002  0.283462             T   T   T
  0.432225            0.573097            0.121007             T   T   T
  0.091772            0.349047            0.084563             T   T   T
  0.358156            0.054568            0.138132             T   T   T
  0.62764             0.321948            0.204184             T   T   T
  0.92356             0.018601            0.158324             T   T   T
  0.964765            0.159671            0.274195             T   T   T
  0.484229            0.25014             0.03865              T   T   T
  0.267306            0.844525            0.302817             T   T   T
  0.297563            0.579564            0.470131             T   T   T
  0.960636            0.274847            0.480992             T   T   T
  0.371619            0.359829            0.287191             T   T   T
  0.65162             0.865273            0.485632             T   T   T
  0.504051            0.125024            0.378544             T   T   T
  0.865609            0.41668             0.372357             T   T   T
