zjw uspex generated structure opt
1.0000
       5.908759     6.26668361329e-16       0.0     
         0.0        5.1171362133   -2.95438008931
         0.0            0.0         21.486398  
    P     Ni
    14    14
Selective dynamics
Direct
  0.448074            0.145265            0.246637             T   T   T
  0.127046            0.43867             0.204837             T   T   T
  0.769857            0.811241            0.151607             T   T   T
  0.357376            0.371496            0.344211             T   T   T
  0.516895            0.923145            0.340622             T   T   T
  0.783943            0.504758            0.322779             T   T   T
  0.64519             0.619818            0.058255             T   T   T
  0.390275            0.0501809999999999  0.100842             T   T   T
  0.933842            0.452586            0.076384             T   T   T
  0.769621            0.242802            0.487671             T   T   T
  0.0937500000000001  0.84221             0.446041             T   T   T
  0.384652            0.515327            0.440414             T   T   T
  0.926873            0.986806            0.014836             T   T   T
  0.888687            0.839297            0.260815             T   T   T
  0.129117            0.827423            0.184476             T   T   T
  0.455092            0.387674            0.174179             T   T   T
  0.082408            0.161282            0.105389             T   T   T
  0.986715            0.44926             0.40663              T   T   T
  0.7489              0.913354            0.417402             T   T   T
  0.121458            0.945937            0.347096             T   T   T
  0.415685            0.846022            0.00563800000000009   T   T   T
  0.333116            0.658296            0.109864             T   T   T
  0.187752            0.58507             0.304243             T   T   T
  0.509184            0.795508            0.225295             T   T   T
  0.37571             0.250336            0.014984             T   T   T
  0.825084            0.179996            0.277656             T   T   T
  0.739826            0.198385            0.156982             T   T   T
  0.492194            0.169581            0.414546             T   T   T
