zjw uspex generated structure opt
1.0000
         6.05           0.0            0.0     
         0.0           4.881           0.0     
         0.0            0.0            22.0    
    P     Ni
    14    14
Selective dynamics
Direct
  0.23307             0.271198            0.049999             T   T   T
  0.062672            0.736109            0.104783             T   T   T
  0.758095            0.548994            0.265274             T   T   T
  0.966763            0.767941            0.006387             T   T   T
  0.644282            0.891356            0.129807             T   T   T
  0.222889            0.366599            0.19981              T   T   T
  0.064702            0.767789            0.231134             T   T   T
  0.805482            0.40401             0.107644             T   T   T
  0.275861            0.991152            0.466485             T   T   T
  0.058569            0.071021            0.372449             T   T   T
  0.199296            0.533034            0.372501             T   T   T
  0.645509            0.410692            0.45152              T   T   T
  0.748117            0.840125            0.377109             T   T   T
  0.610507            0.031803            0.288907             T   T   T
  0.412168            0.544306            0.113156             T   T   T
  0.479985            0.754254            0.216568             T   T   T
  0.315437            0.042375            0.13104              T   T   T
  0.599204            0.2662              0.199129             T   T   T
  0.94734             0.070499            0.164087             T   T   T
  0.964671            0.173644            0.272903             T   T   T
  0.575135            0.175252            0.049803             T   T   T
  0.269462            0.86978             0.308885             T   T   T
  0.288398            0.541664            0.469693             T   T   T
  0.921707            0.290774            0.00819              T   T   T
  0.376483            0.38375             0.290459             T   T   T
  0.634905            0.861887            0.46895              T   T   T
  0.46496             0.163961            0.385454             T   T   T
  0.832144            0.426071            0.361266             T   T   T
