zjw uspex generated structure opt
1.0000
         6.05           0.0            0.0     
         0.0           4.881           0.0     
         0.0            0.0            22.0    
    P     Ni
    14    14
Selective dynamics
Direct
  0.331092            0.853769            0.18984              T   T   T
  0.531459            0.950147            0.362045             T   T   T
  0.283771            0.660532            0.397767             T   T   T
  0.096232            0.55381             0.147859             T   T   T
  0.604782            0.602696            0.16433              T   T   T
  0.88748             0.36068             0.361085             T   T   T
  0.560052            0.124929            0.106163             T   T   T
  0.979105            0.826225            0.297734             T   T   T
  0.391212            0.321592            0.312501             T   T   T
  0.869856            0.830968            0.200368             T   T   T
  0.968694            0.948586            0.398415             T   T   T
  0.609398            0.702693            0.066681             T   T   T
  0.944187            0.124235            0.082144             T   T   T
  0.394452            0.129769            0.484328             T   T   T
  0.273427            0.330405            0.071112             T   T   T
  0.685334            0.876041            0.457019             T   T   T
  0.0495750000000001  0.0994910000000001  0.48839              T   T   T
  0.349014            0.676894            0.49607              T   T   T
  0.982797            0.546294            0.445985             T   T   T
  0.694675            0.326906            0.020074             T   T   T
  0.975324            0.685605            0.056455             T   T   T
  0.558914            0.358185            0.412075             T   T   T
  0.060225            0.277503            0.276356             T   T   T
  0.705617            0.532016            0.278872             T   T   T
  0.822482            0.245209            0.175947             T   T   T
  0.321616            0.738728            0.286003             T   T   T
  0.36724             0.298112            0.198107             T   T   T
  0.650226            0.037882            0.270694             T   T   T
