zjw uspex generated structure opt
1.0000
       5.632137         0.0            0.0     
         0.0          5.632137         0.0     
         0.0            0.0         20.480498  
    P     Ni
    14    14
Selective dynamics
Direct
  0.0617460000000001  0.026157            0.083337             T   T   T
  0.273932            0.733504            0.128636             T   T   T
  0.89853             0.862538            0.409653             T   T   T
  0.313832            0.152187            0.235962             T   T   T
  0.242647            0.724486            0.29168              T   T   T
  0.694781            0.362389            0.285235             T   T   T
  0.300558            0.32668             0.407234             T   T   T
  0.758273            0.208328            0.38486              T   T   T
  0.728984            0.140736            0.130699             T   T   T
  0.990334999999999   0.530909            0.172989             T   T   T
  0.499919            0.092512            0.0453               T   T   T
  0.960754            0.460868            0.036361             T   T   T
  0.550019            0.867083            0.18982              T   T   T
  0.933311            0.100134            0.233904             T   T   T
  0.439406            0.506498            0.214834             T   T   T
  0.251762            0.719713            0.397349             T   T   T
  0.267623            0.353263            0.097433             T   T   T
  0.798709            0.807456            0.016521             T   T   T
  0.0903520000000001  0.115388            0.480235             T   T   T
  0.28115             0.733               0.022943             T   T   T
  0.850711            0.729107            0.257209             T   T   T
  0.676299            0.518555            0.106466             T   T   T
  0.633221            0.63628             0.361428             T   T   T
  0.510883            0.001838            0.444791             T   T   T
  0.078542            0.370039            0.316692             T   T   T
  0.426941            0.05301             0.331387             T   T   T
  0.945015            0.480902            0.432352             T   T   T
  0.557951            0.424257            0.484856             T   T   T
