zjw uspex generated structure opt
1.0000
         6.05           0.0            0.0     
         0.0           4.881           0.0     
         0.0            0.0            22.0    
    P     Ni
    14    14
Selective dynamics
Direct
  0.166452            0.217216            0.135641             T   T   T
  0.340706            0.984903            0.210427             T   T   T
  0.390704            0.923031            0.019786             T   T   T
  0.980594            0.359688            0.464189             T   T   T
  0.349411            0.954309            0.366642             T   T   T
  0.41223             0.394514            0.248776             T   T   T
  0.765309            0.899096            0.446682             T   T   T
  0.689828            0.196779            0.306241             T   T   T
  0.881205            0.615107            0.340019             T   T   T
  0.874159            0.875493            0.225954             T   T   T
  0.595582            0.51816             0.089495             T   T   T
  0.453197            0.648395            0.436457             T   T   T
  0.915101            0.696427            0.026475             T   T   T
  0.587509            0.075236            0.112857             T   T   T
  0.150916            0.596964            0.189125             T   T   T
  0.161298            0.791643            0.288469             T   T   T
  0.335347            0.420582            0.347322             T   T   T
  0.235508            0.611517            0.079396             T   T   T
  0.076444            0.103585            0.043341             T   T   T
  0.310426            0.238894            0.449293             T   T   T
  0.882209            0.821673            0.121013             T   T   T
  0.671747            0.214582            0.014969             T   T   T
  0.571976            0.672852            0.182631             T   T   T
  0.991735            0.036348            0.37643              T   T   T
  0.576088            0.778286            0.292582             T   T   T
  0.688275            0.335067            0.4039               T   T   T
  0.0309710000000001  0.280929            0.274604             T   T   T
  0.834103            0.28702             0.171176             T   T   T
