zjw uspex generated structure opt
1.0000
         6.05           0.0            0.0     
         0.0           4.881           0.0     
         0.0            0.0            22.0    
    P     Ni
    14    14
Selective dynamics
Direct
  0.591308            0.017876            0.168832             T   T   T
  0.033457            0.0893330000000001  0.085522             T   T   T
  0.087235            0.509635            0.052654             T   T   T
  0.939872            0.053617            0.472775             T   T   T
  0.342689            0.0212340000000001  0.027007             T   T   T
  0.579758            0.638488            0.460845             T   T   T
  0.614911            0.910688            0.381679             T   T   T
  0.121204            0.1139              0.317358             T   T   T
  0.259425            0.521936            0.408731             T   T   T
  0.902737            0.12609             0.214253             T   T   T
  0.374716            0.55135             0.243239             T   T   T
  0.012994            0.515729            0.16798              T   T   T
  0.82227             0.432323            0.289242             T   T   T
  0.674045            0.623457            0.126367             T   T   T
  0.42857             0.607645            0.049804             T   T   T
  0.63264             0.199097            0.077095             T   T   T
  0.368737            0.396263            0.148716             T   T   T
  0.595319            0.198098            0.465199             T   T   T
  0.853106            0.240225            0.37738              T   T   T
  0.234966            0.067791            0.41907              T   T   T
  0.0420070000000001  0.754655            0.249845             T   T   T
  0.469614            0.280003            0.331504             T   T   T
  0.947947            0.514343            0.460827             T   T   T
  0.335613            0.762072            0.329876             T   T   T
  0.948461            0.748131            0.360928             T   T   T
  0.804103            0.790793            0.041177             T   T   T
  0.653829            0.822385            0.270992             T   T   T
  0.325124            0.090838            0.233508             T   T   T
