zjw uspex generated structure opt
1.0000
         6.05           0.0            0.0     
         0.0           4.881           0.0     
         0.0            0.0            22.0    
    P     Ni
    14    14
Selective dynamics
Direct
  0.376797            0.87551             0.164544             T   T   T
  0.189192            0.446967            0.056224             T   T   T
  0.588635            0.653623            0.008326             T   T   T
  0.745549            0.545569            0.225254             T   T   T
  0.784487            0.162707            0.165                T   T   T
  0.23446             0.493344            0.204935             T   T   T
  0.99933             0.910886            0.060586             T   T   T
  0.154867            0.124998            0.297837             T   T   T
  0.49819             0.196744            0.418798             T   T   T
  0.946812            0.457031            0.456491             T   T   T
  0.168085            0.88994             0.385706             T   T   T
  0.437548            0.157553            0.018474             T   T   T
  0.465122            0.927339            0.262786             T   T   T
  0.787736            0.838183            0.348851             T   T   T
  0.487894            0.464687            0.123079             T   T   T
  0.144448            0.182674            0.135608             T   T   T
  0.809129            0.298287            0.039858             T   T   T
  0.0165689999999999  0.867895            0.21218              T   T   T
  0.626915            0.920846            0.089963             T   T   T
  0.893358            0.578234            0.128676             T   T   T
  0.0303269999999999  0.548358            0.292538             T   T   T
  0.506018            0.732835            0.407519             T   T   T
  0.453108            0.475144            0.287443             T   T   T
  0.214962            0.767589            0.485712             T   T   T
  0.200714            0.391686            0.385869             T   T   T
  0.774363            0.139953            0.273296             T   T   T
  0.862819            0.986921            0.446491             T   T   T
  0.768833            0.384221            0.371                T   T   T
