zjw uspex generated structure opt
1.0000
         6.05           0.0            0.0     
         0.0           4.881           0.0     
         0.0            0.0            22.0    
    P     Ni
    14    14
Selective dynamics
Direct
  0.131553            0.702316            0.108798             T   T   T
  0.581454            0.037689            0.061429             T   T   T
  0.868596            0.946062            0.159536             T   T   T
  0.096331            0.197607            0.106017             T   T   T
  0.306541            0.936186            0.499682             T   T   T
  0.61289             0.462375            0.028387             T   T   T
  0.75246             0.875319            0.439556             T   T   T
  0.245946            0.890315            0.362507             T   T   T
  0.944138            0.157187            0.308048             T   T   T
  0.5925              0.514774            0.206348             T   T   T
  0.588937            0.455321            0.349867             T   T   T
  0.159537            0.0182900000000001  0.227495             T   T   T
  0.953229            0.529238            0.244986             T   T   T
  0.18505             0.303578            0.460501             T   T   T
  0.927473            0.986944            0.022278             T   T   T
  0.509149            0.648964            0.114792             T   T   T
  0.976037            0.479684            0.035056             T   T   T
  0.226322            0.43148             0.185193             T   T   T
  0.228524            0.340129            0.363191             T   T   T
  0.608217            0.994465            0.355788             T   T   T
  0.341505            0.696065            0.276988             T   T   T
  0.730185            0.888119            0.24998              T   T   T
  0.449699            0.216137            0.269052             T   T   T
  0.460834            0.616029            0.441275             T   T   T
  0.803421            0.328649            0.434197             T   T   T
  0.540813            0.127331            0.157345             T   T   T
  0.075474            0.71244             0.439543             T   T   T
  0.920074            0.66642             0.339204             T   T   T
