zjw uspex generated structure opt
1.0000
       5.908759     6.26668361329e-16       0.0     
         0.0        5.1171362133   -2.95438008931
         0.0            0.0         21.486398  
    P     Ni
    14    14
Selective dynamics
Direct
  0.332956            0.185772            0.177874             T   T   T
  0.715546            0.0216940000000001  0.23796              T   T   T
  0.151874            0.54901             0.441421             T   T   T
  0.40546             0.134897            0.411226             T   T   T
  0.34473             0.65552             0.062942             T   T   T
  0.782285            0.720102            0.281484             T   T   T
  0.062812            0.323557            0.357264             T   T   T
  0.18858             0.467872            0.195923             T   T   T
  0.687609            0.187372            0.073244             T   T   T
  0.780892            0.895219            0.401782             T   T   T
  0.781783            0.416822            0.490878             T   T   T
  0.205087            0.214397            0.017847             T   T   T
  0.42529             0.0533649999999999  0.312375             T   T   T
  0.826125            0.715227            0.137933             T   T   T
  0.08028             0.268207            0.106525             T   T   T
  0.522938            0.832313            0.153299             T   T   T
  0.780153            0.863208            0.0522910000000001   T   T   T
  0.756836            0.336108            0.168954             T   T   T
  0.518684            0.481566            0.357148             T   T   T
  0.0413790000000001  0.739932            0.357164             T   T   T
  0.540788            0.963445            0.476454             T   T   T
  0.517566            0.553508            0.470081             T   T   T
  0.360376            0.668565            0.283443             T   T   T
  0.827913            0.373828            0.28747              T   T   T
  0.052365            0.860199            0.465871             T   T   T
  0.136717            0.152343            0.272388             T   T   T
  0.240167            0.956276            0.086354             T   T   T
  0.0948              0.779492            0.212235             T   T   T
