EA264  11.718 11.718  7.061 90.000 90.00
   1.00000000000000     
    11.7180000000000000    0.0000000000000000    0.0000000000000000
    -5.8590000000000000   10.1480859999999993    0.0000000000000000
     0.0000000000000000    0.0000000000000000    7.0609999999999999
   P    Ni
    12     6
Direct
  0.2255224222191885  0.1416340896719736  0.8604798875811217
  0.0646030348495020  0.8572604803072765  0.4874923222980147
  0.9683260402760473  0.8180221988636622  0.2112717884556467
  0.0058461214631415  0.7246676290811094  0.9625605545783793
  0.7337162474599602  0.9058554472718091  0.5217640015520425
  0.6744998749642163  0.7529731755489273  0.2807964753100109
  0.0322774949574665  0.1261886627833135  0.8948682990767436
  0.7401410612870716  0.9746187430868121  0.2370396872222138
  0.1709487423486399  0.1571745087875432  0.3276596041524504
  0.8593682725101484  0.7598051774542819  0.8124863764462701
  0.0321534512541326  0.2022488096261845  0.1811145737376441
  0.2498796454836769  0.0671610325488691  0.1312762273524602
  0.8298880353558178  0.8669403075020558  0.0627491719766618
  0.0629044535190506  0.9426166590429070  0.9475571445122765
  0.8927447121947579  0.9614570830327199  0.7309151086481395
  0.8488798066062648  0.7907168559312525  0.4865883841137010
  0.9378648650777912  0.0158549382077917  0.3497446284623660
  0.1113747181731127  0.0484372012515250  0.5929427645238511
 
  0.00000000E+00  0.00000000E+00  0.00000000E+00
  0.00000000E+00  0.00000000E+00  0.00000000E+00
  0.00000000E+00  0.00000000E+00  0.00000000E+00
  0.00000000E+00  0.00000000E+00  0.00000000E+00
  0.00000000E+00  0.00000000E+00  0.00000000E+00
  0.00000000E+00  0.00000000E+00  0.00000000E+00
  0.00000000E+00  0.00000000E+00  0.00000000E+00
  0.00000000E+00  0.00000000E+00  0.00000000E+00
  0.00000000E+00  0.00000000E+00  0.00000000E+00
  0.00000000E+00  0.00000000E+00  0.00000000E+00
  0.00000000E+00  0.00000000E+00  0.00000000E+00
  0.00000000E+00  0.00000000E+00  0.00000000E+00
  0.00000000E+00  0.00000000E+00  0.00000000E+00
  0.00000000E+00  0.00000000E+00  0.00000000E+00
  0.00000000E+00  0.00000000E+00  0.00000000E+00
  0.00000000E+00  0.00000000E+00  0.00000000E+00
  0.00000000E+00  0.00000000E+00  0.00000000E+00
  0.00000000E+00  0.00000000E+00  0.00000000E+00
