zjw uspex generated structure opt
1.0000
       5.908759     6.26668361329e-16       0.0     
         0.0        5.1171362133   -2.95438008931
         0.0            0.0         21.486398  
    P     Ni
    14    14
Selective dynamics
Direct
  0.451438            0.757238            0.095972             T   T   T
  0.698693            0.562787            0.089355             T   T   T
  0.302862            0.02137             0.062573             T   T   T
  0.631946            0.309209            0.00590000000000004   T   T   T
  0.187774            0.457877            0.160643             T   T   T
  0.917049            0.224358            0.046763             T   T   T
  0.378612            0.161659            0.418344             T   T   T
  0.249776            0.489084            0.473352             T   T   T
  0.668679            0.06216             0.373966             T   T   T
  0.655893            0.801184            0.446386             T   T   T
  0.692552            0.543694            0.379133             T   T   T
  0.105506            0.749824            0.446544             T   T   T
  0.137976            0.191586            0.330901             T   T   T
  0.0221799999999999  0.879057            0.152291             T   T   T
  0.793707            0.0889220000000001  0.143913             T   T   T
  0.589999            0.684356            0.1997               T   T   T
  0.849348            0.484325            0.18448              T   T   T
  0.319182            0.872036            0.21301              T   T   T
  0.406406            0.242086            0.148734             T   T   T
  0.155853            0.466187            0.26145              T   T   T
  0.270233            0.901196            0.333508             T   T   T
  0.445908            0.2998              0.262338             T   T   T
  0.025514            0.441651            0.380863             T   T   T
  0.710473            0.12988             0.269833             T   T   T
  0.544365            0.712262            0.314217             T   T   T
  0.864409            0.591677            0.291877             T   T   T
  0.945649            0.896611            0.0135960000000001   T   T   T
  0.993952            0.986567            0.245732             T   T   T
