zjw uspex generated structure opt
1.0000
     6.7080443409   1.37073988226   1.77022479594
         0.0        6.84666341817   1.77022504626
         0.0            0.0         14.143619  
    P     Ni
    14    14
Selective dynamics
Direct
  0.822365            0.345589            0.110375             T   T   T
  0.336208            0.782269999999999   0.15363              T   T   T
  0.34559             0.322224            0.410296             T   T   T
  0.099609            0.213658            0.325159             T   T   T
  0.553809            0.0799229999999999  0.126407             T   T   T
  0.200051            0.600828            0.04394              T   T   T
  0.216248            0.71747             0.319364             T   T   T
  0.749146            0.23263             0.274282             T   T   T
  0.736964            0.669714            0.0937449999999999   T   T   T
  0.875108            0.767782999999999   0.199946             T   T   T
  0.408763            0.933371            0.405682             T   T   T
  0.708174            0.307192            0.469695             T   T   T
  0.214943            0.266843            0.14258              T   T   T
  0.726542            0.77578             0.371227             T   T   T
  0.955273            0.968599            0.330336             T   T   T
  0.704508            0.980626            0.486124             T   T   T
  0.968614            0.656956            0.455796             T   T   T
  0.84015             0.479273            0.327417             T   T   T
  0.517265            0.833969            0.257372             T   T   T
  0.478261            0.582717            0.42522              T   T   T
  0.00889             0.042707            0.151821             T   T   T
  0.336273            0.0588969999999999  0.037709             T   T   T
  0.027927            0.298116            0.473386             T   T   T
  0.161162            0.535359            0.212628             T   T   T
  0.429176            0.185397            0.269136             T   T   T
  0.506196            0.457178            0.098488             T   T   T
  0.087329            0.936221            0.481801             T   T   T
  0.495195            0.496912            0.267864             T   T   T
