zjw uspex generated structure opt
1.0000
         6.05           0.0            0.0     
         0.0           4.881           0.0     
         0.0            0.0            22.0    
    P     Ni
    14    14
Selective dynamics
Direct
  0.685137            0.161127            0.131207             T   T   T
  0.259727            0.017947            0.066801             T   T   T
  0.152616            0.025218            0.168475             T   T   T
  0.687483            0.731719            0.257546             T   T   T
  0.439238            0.41046             0.268796             T   T   T
  0.108459            0.464097            0.154121             T   T   T
  0.90868             0.446187            0.302188             T   T   T
  0.169193            0.198185            0.415269             T   T   T
  0.567977            0.09874             0.433346             T   T   T
  0.559538            0.69643             0.385634             T   T   T
  0.984372            0.387257            0.496723             T   T   T
  0.199678            0.982223            0.317978             T   T   T
  0.578116            0.755276            0.078001             T   T   T
  0.091353            0.87245             0.48484              T   T   T
  0.486336            0.525083            0.166358             T   T   T
  0.268939            0.502379            0.065874             T   T   T
  0.4845              0.04311             0.210211             T   T   T
  0.840056            0.794817            0.16745              T   T   T
  0.17436             0.683351            0.238386             T   T   T
  0.856571            0.475329            0.083343             T   T   T
  0.931701            0.074453            0.254383             T   T   T
  0.574316            0.186094            0.032182             T   T   T
  0.921921            0.883574            0.387151             T   T   T
  0.219279            0.553379            0.349496             T   T   T
  0.737686            0.738483            0.487122             T   T   T
  0.346361            0.543764            0.459721             T   T   T
  0.820772            0.387434            0.398318             T   T   T
  0.590824            0.064841            0.322847             T   T   T
