zjw uspex generated structure opt
1.0000
       5.908759     6.26668361329e-16       0.0     
         0.0        5.1171362133   -2.95438008931
         0.0            0.0         21.486398  
    P     Ni
    14    14
Selective dynamics
Direct
  0.843111            0.551663            0.15143              T   T   T
  0.292292            0.15653             0.196334             T   T   T
  0.562511            0.960565            0.170499             T   T   T
  0.198771            0.406268            0.250102             T   T   T
  0.417965            0.242384            0.399182             T   T   T
  0.907242            0.096667            0.433041             T   T   T
  0.846662            0.627911            0.486622             T   T   T
  0.378162            0.740922            0.374747             T   T   T
  0.939473            0.688499            0.303083             T   T   T
  0.693743            0.259372            0.038848             T   T   T
  0.0320059999999999  0.917366            0.061531             T   T   T
  0.07378             0.439873            0.092418             T   T   T
  0.479532            0.623345            0.017326             T   T   T
  0.718534            7.5e-005            0.292818             T   T   T
  0.370563            0.874625            0.073525             T   T   T
  0.368532            0.291216            0.098885             T   T   T
  0.679804            0.759782            0.11026              T   T   T
  0.706094            0.315023            0.234452             T   T   T
  0.356576            0.018967            0.308355             T   T   T
  0.795458            0.343543            0.367625             T   T   T
  0.660306            0.701996            0.223615             T   T   T
  0.160907            0.741876            0.218036             T   T   T
  0.048696            0.827977            0.401255             T   T   T
  0.520108            0.977007            0.459551             T   T   T
  0.145246            0.517627            0.452783             T   T   T
  0.088263            0.203162            0.339431             T   T   T
  0.533963            0.532671            0.326165             T   T   T
  0.260406            0.200256            0.489406             T   T   T
