zjw uspex generated structure opt
1.0000
         6.05           0.0            0.0     
         0.0           4.881           0.0     
         0.0            0.0            22.0    
    P     Ni
    14    14
Selective dynamics
Direct
  0.403928            0.0537150000000001  0.060586             T   T   T
  0.916182            0.253728            0.469242             T   T   T
  0.751819            0.267556            0.360505             T   T   T
  0.238465            0.335009            0.282465             T   T   T
  0.901992            0.90039             0.050353             T   T   T
  0.373625            0.836135            0.181238             T   T   T
  0.967987            0.549865            0.13055              T   T   T
  0.401415            0.605185            0.05431              T   T   T
  0.908621            0.732094            0.385555             T   T   T
  0.319038            0.881024            0.282855             T   T   T
  0.426546            0.517213            0.43345              T   T   T
  0.738695            0.728036            0.269897             T   T   T
  0.61181             0.970811            0.432792             T   T   T
  0.687498            0.087243            0.177086             T   T   T
  0.0528170000000001  0.987527            0.142203             T   T   T
  0.702283            0.268561            0.087395             T   T   T
  0.609616            0.18302             0.270426             T   T   T
  0.096845            0.299052            0.056297             T   T   T
  0.979374            0.00743400000000012  0.306793             T   T   T
  0.289259            0.135824            0.468888             T   T   T
  0.113919            0.352768            0.379899             T   T   T
  0.317463            0.409412            0.144894             T   T   T
  0.669037            0.545934            0.184056             T   T   T
  0.059549            0.628174            0.225962             T   T   T
  0.109532            0.661111            0.479602             T   T   T
  0.500765            0.552079            0.334624             T   T   T
  0.261989            0.856646            0.383426             T   T   T
  0.704006            0.605831            0.498671             T   T   T
