zjw uspex generated structure opt
1.0000
         6.05           0.0            0.0     
         0.0           4.881           0.0     
         0.0            0.0            22.0    
    P     Ni
    14    14
Selective dynamics
Direct
  0.109375            0.36244             0.063665             T   T   T
  0.626908            0.589891            0.047904             T   T   T
  0.800588            0.034671            0.055445             T   T   T
  0.651573            0.68532             0.175136             T   T   T
  0.283065            0.088972            0.260469             T   T   T
  0.281248            0.622892            0.265071             T   T   T
  0.937803            0.555123            0.446768             T   T   T
  0.769472            0.268168            0.193147             T   T   T
  0.474976            0.569363            0.409472             T   T   T
  0.183404            0.0872580000000001  0.356473             T   T   T
  0.503503            0.0168970000000001  0.402427             T   T   T
  0.84375             0.627112            0.306737             T   T   T
  0.00549699999999998  0.972646            0.475058             T   T   T
  0.158871            0.0152950000000001  0.124305             T   T   T
  0.466407            0.194889            0.06669              T   T   T
  0.606496            0.885589            0.265284             T   T   T
  0.988403            0.826781            0.217064             T   T   T
  0.529287            0.376009            0.317899             T   T   T
  0.378052            0.832408            0.493821             T   T   T
  0.926393            0.678844            0.10988              T   T   T
  0.465379            0.0698680000000001  0.171039             T   T   T
  0.350146            0.642377            0.112262             T   T   T
  0.125341            0.353015            0.191289             T   T   T
  0.856621            0.926966            0.382453             T   T   T
  0.667888            0.283916            0.468678             T   T   T
  0.146118            0.535791            0.362047             T   T   T
  0.239388            0.331361            0.470743             T   T   T
  0.903967            0.21188             0.287022             T   T   T
