zjw uspex generated structure opt
1.0000
       5.908759     6.26668361329e-16       0.0     
         0.0        5.1171362133   -2.95438008931
         0.0            0.0         21.486398  
    P     Ni
    14    14
Selective dynamics
Direct
  0.822016            0.599301            0.175064             T   T   T
  0.154467            0.154282            0.180696             T   T   T
  0.561115            0.935284            0.170147             T   T   T
  0.18377             0.771598            0.425146             T   T   T
  0.452148            0.361727            0.421247             T   T   T
  0.849622            0.979878            0.430429             T   T   T
  0.0981599999999999  0.424081            0.298739             T   T   T
  0.668225            0.910601            0.338965             T   T   T
  0.0100860000000001  0.760037            0.321267             T   T   T
  0.880307            0.319357            0.046353             T   T   T
  0.00100899999999993  0.749024            0.0709380000000001   T   T   T
  0.313798            0.252652            0.088235             T   T   T
  0.484192            0.714973            0.00428300000000002   T   T   T
  0.508939            0.225464            0.253553             T   T   T
  0.483203            0.997094            0.074475             T   T   T
  0.159373            0.551496            0.125245             T   T   T
  0.613395            0.666104            0.099004             T   T   T
  0.497518            0.494632            0.324615             T   T   T
  0.397882            0.052294            0.349872             T   T   T
  0.842839            0.406002            0.377336             T   T   T
  0.42996             0.540925            0.213232             T   T   T
  0.20207             0.809347            0.228097             T   T   T
  0.880879            0.29121             0.211535             T   T   T
  0.588865            0.107573            0.463383             T   T   T
  0.12258             0.397003            0.460946             T   T   T
  0.79744             0.609712            0.480024             T   T   T
  0.842687            0.88921             0.248924             T   T   T
  0.172551            0.043754            0.497585             T   T   T
