zjw uspex generated structure opt
1.0000
       5.908759     6.26668361329e-16       0.0     
         0.0        5.1171362133   -2.95438008931
         0.0            0.0         21.486398  
    P     Ni
    14    14
Selective dynamics
Direct
  0.096408            0.999976            0.179704             T   T   T
  0.263153            0.996295            0.317072             T   T   T
  0.999821            0.582518            0.285631             T   T   T
  0.363672            0.609707            0.362159             T   T   T
  0.71768             0.622933            0.392379             T   T   T
  0.401959            0.411188            0.271401             T   T   T
  0.709929            0.64335             0.0708940000000001   T   T   T
  0.560903            0.153368            0.07589              T   T   T
  0.126567            0.623782            0.483338             T   T   T
  0.620954            0.946261            0.482147             T   T   T
  0.903906            0.008412            0.344961             T   T   T
  0.265369            0.206379            0.46903              T   T   T
  0.295191            0.714878            0.165585             T   T   T
  0.746921            0.961241            0.251987             T   T   T
  0.122364            0.940794            0.080211             T   T   T
  0.393451            0.381077            0.137672             T   T   T
  0.728459            0.957439            0.138065             T   T   T
  0.031006            0.31898             0.412746             T   T   T
  0.356659            0.936376            0.411305             T   T   T
  0.0641290000000001  0.349974            0.21742              T   T   T
  0.995072            0.241272            0.032904             T   T   T
  0.368119            0.703247            0.064123             T   T   T
  0.758391            0.61988             0.215342             T   T   T
  0.909761            0.825807            0.477544             T   T   T
  0.677754            0.345573            0.476551             T   T   T
  0.480339            0.092392            0.225976             T   T   T
  0.908643            0.460994            0.121843             T   T   T
  0.686801            0.296018            0.34122              T   T   T
