zjw uspex generated structure opt
1.0000
         6.05           0.0            0.0     
         0.0           4.881           0.0     
         0.0            0.0            22.0    
    P     Ni
    14    14
Selective dynamics
Direct
  0.903742            0.413147            0.023499             T   T   T
  0.629063            0.881885            0.043644             T   T   T
  0.2196              0.981624            0.128008             T   T   T
  0.622893            0.54791             0.168869             T   T   T
  0.68762             0.984412            0.177062             T   T   T
  0.402179            0.552697            0.043697             T   T   T
  0.714383            0.821927            0.295833             T   T   T
  0.344613            0.196656            0.252232             T   T   T
  0.065965            0.481626            0.230931             T   T   T
  0.645261            0.0402500000000001  0.381014             T   T   T
  0.037927            0.731339            0.382147             T   T   T
  0.395676            0.375483            0.359886             T   T   T
  0.281253            0.764621            0.293528             T   T   T
  0.06057             0.803558            0.493867             T   T   T
  0.893414            0.741257            0.103908             T   T   T
  0.036466            0.947208            0.216103             T   T   T
  0.924908            0.246986            0.121693             T   T   T
  0.256729            0.541176            0.139802             T   T   T
  0.519777            0.205316            0.103307             T   T   T
  0.19846             0.162573            0.034323             T   T   T
  0.318276            0.001403            0.420882             T   T   T
  0.272046            0.504491            0.447431             T   T   T
  0.684771            0.729365            0.450845             T   T   T
  0.592583            0.250812            0.488611             T   T   T
  0.763799            0.461581            0.357609             T   T   T
  0.726807            0.29682             0.251647             T   T   T
  0.082249            0.128552            0.326466             T   T   T
  0.937439            0.144969            0.435979             T   T   T
