zjw uspex generated structure opt
1.0000
     6.7080443409   1.37073988226   1.77022479594
         0.0        6.84666341817   1.77022504626
         0.0            0.0         14.143619  
    P     Ni
    14    14
Selective dynamics
Direct
  0.566987            0.383738            0.0968159999999999   T   T   T
  0.487396            0.738659999999999   0.12844              T   T   T
  0.320735            0.322419            0.410245             T   T   T
  0.064472            0.261051            0.370786             T   T   T
  0.553633            0.062135            0.13823              T   T   T
  0.235396            0.680567            0.059936             T   T   T
  0.26454             0.706637            0.290516             T   T   T
  0.782796            0.216495            0.257449             T   T   T
  0.864387            0.908529            0.105327             T   T   T
  0.90167             0.756687            0.256192             T   T   T
  0.421057            0.872231999999999   0.410353             T   T   T
  0.692443            0.240741            0.441368             T   T   T
  0.212214            0.18803             0.215207             T   T   T
  0.787609            0.712072            0.0216869999999999   T   T   T
  0.0343719999999999  0.966914            0.305983             T   T   T
  0.708591            0.954167            0.399055             T   T   T
  0.087446            0.632885            0.437561             T   T   T
  0.812812            0.466865            0.319117             T   T   T
  0.570014            0.779238            0.269959             T   T   T
  0.48732             0.537311            0.443595             T   T   T
  0.012297            0.135549            0.130408             T   T   T
  0.38989             0.040264            0.031799             T   T   T
  0.863782            0.390926            0.00446699999999997   T   T   T
  0.152508            0.51247             0.21744              T   T   T
  0.484302            0.129447            0.285039             T   T   T
  0.232121            0.372801            0.064621             T   T   T
  0.101605            0.969584            0.478625             T   T   T
  0.514669            0.466027            0.246973             T   T   T
