zjw uspex generated structure opt
1.0000
     6.7080443409   1.37073988226   1.77022479594
         0.0        6.84666341817   1.77022504626
         0.0            0.0         14.143619  
    P     Ni
    14    14
Selective dynamics
Direct
  0.21595             0.981990999999999   0.366534             T   T   T
  0.729971            0.218094            0.489604             T   T   T
  0.982325            0.732825            0.107912             T   T   T
  0.479516            0.055371            0.035584             T   T   T
  0.074651            0.475711            0.028995             T   T   T
  0.0576689999999999  0.071139            0.239175             T   T   T
  0.357388            0.508759            0.407312             T   T   T
  0.815597            0.356346            0.2542               T   T   T
  0.509644            0.814538999999999   0.178661             T   T   T
  0.606836            0.0325709999999999  0.243036             T   T   T
  0.486247            0.606569            0.016304             T   T   T
  0.032596            0.486121            0.303311             T   T   T
  0.96193             0.966226            0.482016             T   T   T
  0.812907            0.807769            0.405724             T   T   T
  0.495244            0.899069            0.418978             T   T   T
  0.841162            0.492356            0.450951             T   T   T
  0.901373            0.838172            0.246915             T   T   T
  0.579761            0.221615            0.372112             T   T   T
  0.749122            0.576874            0.112518             T   T   T
  0.225549            0.748563            0.288496             T   T   T
  0.91383             0.212558            0.106357             T   T   T
  0.212961            0.913235999999999   0.106444             T   T   T
  0.213698            0.212433            0.456656             T   T   T
  0.308757            0.255092            0.279955             T   T   T
  0.561294            0.308264            0.126899             T   T   T
  0.255287            0.559842            0.154154             T   T   T
  0.245017            0.241075            0.121729             T   T   T
  0.513584            0.512957            0.256556             T   T   T
