zjw uspex generated structure opt
1.0000
       5.908759     6.26668361329e-16       0.0     
         0.0        5.1171362133   -2.95438008931
         0.0            0.0         21.486398  
    P     Ni
    14    14
Selective dynamics
Direct
  0.340154            0.029423            0.191886             T   T   T
  0.968289            0.309146            0.191798             T   T   T
  0.68906             0.658732            0.191884             T   T   T
  0.340222            0.30908             0.308297             T   T   T
  0.687075            0.028113            0.308176             T   T   T
  0.968281            0.658814            0.308142             T   T   T
  0.687032            0.658811            0.058148             T   T   T
  0.340514            0.028552            0.058191             T   T   T
  0.968295            0.308919            0.058227             T   T   T
  0.685697            0.027643            0.441887             T   T   T
  0.967066            0.657935            0.441908             T   T   T
  0.34201             0.309059            0.441921             T   T   T
  0.992369            0.99223             0.499995             T   T   T
  0.99952             0.999514            0.250001             T   T   T
  0.021284            0.760018            0.124969             T   T   T
  0.235455            0.259157            0.124562             T   T   T
  0.733515            0.973387            0.125236             T   T   T
  0.020651            0.25616             0.375776             T   T   T
  0.733681            0.75757             0.374724             T   T   T
  0.237448            0.972387            0.37552              T   T   T
  0.328951            0.660987            0.435302             T   T   T
  0.32959             0.66343             0.065028             T   T   T
  0.329625            0.662779            0.315297             T   T   T
  0.33119             0.664623            0.185423             T   T   T
  0.664181            0.330311            0.000637000000000038   T   T   T
  0.665725            0.332026            0.249997             T   T   T
  0.66542             0.332389            0.124977             T   T   T
  0.666024            0.331783            0.37495              T   T   T
