zjw uspex generated structure opt
1.0000
         6.05           0.0            0.0     
         0.0           4.881           0.0     
         0.0            0.0            22.0    
    P     Ni
    14    14
Selective dynamics
Direct
  0.155927            0.734175            0.490129             T   T   T
  0.569235            0.636407            0.056862             T   T   T
  0.531619            0.196648            0.040868             T   T   T
  0.937153            0.908736            0.115128             T   T   T
  0.470997            0.124956            0.143859             T   T   T
  0.13163             0.547804            0.132836             T   T   T
  0.254884            0.33032             0.274848             T   T   T
  0.027476            0.841585            0.398046             T   T   T
  0.205301            0.289543            0.472276             T   T   T
  0.88178             0.254827            0.410508             T   T   T
  0.656272            0.265924            0.272868             T   T   T
  0.566911            0.964692            0.34585              T   T   T
  0.516282            0.576285            0.405386             T   T   T
  0.220024            0.771496            0.231121             T   T   T
  0.145709            0.160606            0.184972             T   T   T
  0.757819            0.00201899999999998  0.196955             T   T   T
  0.483159            0.654524            0.153657             T   T   T
  0.865346            0.42166             0.004686             T   T   T
  0.788904            0.348725            0.116487             T   T   T
  0.168346            0.185772            0.06969              T   T   T
  0.818423            0.92296             0.021584             T   T   T
  0.261261            0.702199            0.333947             T   T   T
  0.241836            0.214335            0.371464             T   T   T
  0.915296            0.528563            0.222813             T   T   T
  0.556385            0.125393            0.441289             T   T   T
  0.978811            0.0179510000000001  0.290759             T   T   T
  0.561676            0.703675            0.263189             T   T   T
  0.825158            0.569196            0.34177              T   T   T
