zjw uspex generated structure opt
1.0000
         6.05           0.0            0.0     
         0.0           4.881           0.0     
         0.0            0.0            22.0    
    P     Ni
    14    14
Selective dynamics
Direct
  0.0332149999999999  0.232765            0.264583             T   T   T
  0.966384            0.267973            0.014503             T   T   T
  0.031213            0.799118            0.263717             T   T   T
  0.96536             0.710682            0.013269             T   T   T
  0.529347            0.0171620000000001  0.277093             T   T   T
  0.470567            0.482752            0.027108             T   T   T
  0.374406            0.772161            0.180377             T   T   T
  0.626631            0.728458            0.431293             T   T   T
  0.373791            0.228596            0.181261             T   T   T
  0.626983            0.26854             0.431262             T   T   T
  0.887885            0.768387            0.115387             T   T   T
  0.112006            0.730004            0.365346             T   T   T
  0.886831            0.227806            0.117437             T   T   T
  0.113586            0.272161            0.365885             T   T   T
  0.279251            0.749611            0.463363             T   T   T
  0.71956             0.75207             0.21318              T   T   T
  0.27386             0.242073            0.462252             T   T   T
  0.724858            0.262381            0.212894             T   T   T
  0.762652            0.256415            0.333755             T   T   T
  0.236179            0.242849            0.083831             T   T   T
  0.76118             0.753643            0.333277             T   T   T
  0.238417            0.745568            0.083143             T   T   T
  0.922886            0.996608            0.433801             T   T   T
  0.080764            0.507161            0.186243             T   T   T
  0.576443            0.999926            0.106825             T   T   T
  0.424801            0.499966            0.360575             T   T   T
  0.405492            0.999417            0.369021             T   T   T
  0.595172            0.499716            0.119114             T   T   T
