zjw uspex generated structure opt
1.0000
       5.632137         0.0            0.0     
         0.0          5.632137         0.0     
         0.0            0.0         20.480498  
    P     Ni
    14    14
Selective dynamics
Direct
  0.808597            0.062587            0.027156             T   T   T
  0.299822            0.892608            0.082351             T   T   T
  0.558749            0.732197            0.203245             T   T   T
  0.305864            0.272527            0.184543             T   T   T
  0.400619            0.205344            0.433301             T   T   T
  0.407124            0.104773            0.314816             T   T   T
  0.906872            0.44707             0.133091             T   T   T
  0.662127            0.102748            0.22947              T   T   T
  0.167536            0.859768            0.185181             T   T   T
  0.670565            0.735363            0.488374             T   T   T
  0.333276            0.33411             0.076635             T   T   T
  0.170553            0.892632            0.481385             T   T   T
  0.931999999999999   0.0260950000000001  0.361201             T   T   T
  0.83715             0.0589870000000001  0.129925             T   T   T
  0.138579            0.369599            0.345441             T   T   T
  0.788609            0.728323            0.295181             T   T   T
  0.020922            0.24459             0.453025             T   T   T
  0.941794            0.678231            0.41397              T   T   T
  0.053264            0.523502            0.226071             T   T   T
  0.03428             0.56249             0.039385             T   T   T
  0.57541             0.894898            0.389108             T   T   T
  0.349565            0.587749            0.437364             T   T   T
  0.623754            0.368032            0.006022             T   T   T
  0.035559            0.101001            0.258975             T   T   T
  0.219803            0.775495            0.319899             T   T   T
  0.470615            0.453737            0.268762             T   T   T
  0.61011             0.656749            0.098315             T   T   T
  0.686804            0.348637            0.369596             T   T   T
