zjw uspex generated structure opt       
   1.00000000000000     
     5.9087589999999999    0.0000000000000006    0.0000000000000000
     0.0000000000000000    5.1171362133000002   -2.9543800893099998
     0.0000000000000000    0.0000000000000000   21.4863980000000012
   P    Ni
    14    14
Selective dynamics
Direct
  0.4596362634812312  0.5022851624641825  0.2706115148783056   T   T   T
  0.7760021719807740  0.1406461077023842  0.1670395380826770   T   T   T
  0.1500763605534545  0.6068010938111984  0.1735396205214279   T   T   T
  0.0494304611108316  0.6653261425184611  0.3100966714013959   T   T   T
  0.3904315211000567  0.1833446917253584  0.3015986578691531   T   T   T
  0.6681863445242542 -0.0583222063720616  0.2281272009040066   T   T   T
  0.5811982334225647  0.2377796534545858  0.0210157571048421   T   T   T
  0.5238973048873117  0.4892487091922885  0.5328823574723052   T   T   T
 -0.0279434684394353  0.3497803281814808  0.3964437814713541   T   T   T
  0.6545914949009576  0.8648361353601633  0.4234852807810365   T   T   T
  0.2029362497372060  0.1698455478224471  0.4709632968985803   T   T   T
  0.2544534207774711  0.9319826320333512  0.1031932944256172   T   T   T
  0.8941825267898621  0.0055535727670566  0.0002471930207396   T   T   T
  0.7910023920877320  0.5641249585438132  0.0279085717644655   T   T   T
  0.2480721830022113  0.0773380135098286  0.0277385764591410   T   T   T
  0.8356246624228829  0.2389515504838028  0.4782606350537320   T   T   T
  0.7094075636212327  0.6141726507905118  0.4668498680822161   T   T   T
  0.1247048147107110  0.5298077567041356  0.0646215736345708   T   T   T
  0.4440440537951609  0.3452575897427709  0.1536114668276388   T   T   T
  0.6217826371061336  0.9313468777880535  0.0607575194741794   T   T   T
  0.4843139518505270  0.0975888174720913  0.5238297968775445   T   T   T
  0.0225654790820477  0.7784925809455198  0.4225330289080140   T   T   T
  0.3390568931680016  0.4017625927961196  0.4238430553932717   T   T   T
  0.3599179992537398  0.8879739729245882  0.3607437970337546   T   T   T
  0.5177886847184355  0.6715272504111521  0.1179473454138595   T   T   T
  0.0469141792495108 -0.0144179392064310  0.2766096253976981   T   T   T
  0.1195721067342287  0.2615669520195722  0.2121017961073241   T   T   T
  0.7986315143709061  0.5819108044136015  0.2257261787411667   T   T   T
 
  0.00000000E+00  0.00000000E+00  0.00000000E+00
  0.00000000E+00  0.00000000E+00  0.00000000E+00
  0.00000000E+00  0.00000000E+00  0.00000000E+00
  0.00000000E+00  0.00000000E+00  0.00000000E+00
  0.00000000E+00  0.00000000E+00  0.00000000E+00
  0.00000000E+00  0.00000000E+00  0.00000000E+00
  0.00000000E+00  0.00000000E+00  0.00000000E+00
  0.00000000E+00  0.00000000E+00  0.00000000E+00
  0.00000000E+00  0.00000000E+00  0.00000000E+00
  0.00000000E+00  0.00000000E+00  0.00000000E+00
  0.00000000E+00  0.00000000E+00  0.00000000E+00
  0.00000000E+00  0.00000000E+00  0.00000000E+00
  0.00000000E+00  0.00000000E+00  0.00000000E+00
  0.00000000E+00  0.00000000E+00  0.00000000E+00
  0.00000000E+00  0.00000000E+00  0.00000000E+00
  0.00000000E+00  0.00000000E+00  0.00000000E+00
  0.00000000E+00  0.00000000E+00  0.00000000E+00
  0.00000000E+00  0.00000000E+00  0.00000000E+00
  0.00000000E+00  0.00000000E+00  0.00000000E+00
  0.00000000E+00  0.00000000E+00  0.00000000E+00
  0.00000000E+00  0.00000000E+00  0.00000000E+00
  0.00000000E+00  0.00000000E+00  0.00000000E+00
  0.00000000E+00  0.00000000E+00  0.00000000E+00
  0.00000000E+00  0.00000000E+00  0.00000000E+00
  0.00000000E+00  0.00000000E+00  0.00000000E+00
  0.00000000E+00  0.00000000E+00  0.00000000E+00
  0.00000000E+00  0.00000000E+00  0.00000000E+00
  0.00000000E+00  0.00000000E+00  0.00000000E+00
