SYSTEM = Ni-P
#ISYM = 0
ISTART = 1        # 0 = new job, 1 = restart

! Electronic Structure
#ISPIN  = 2        # spin polarisation 1 = no 2 = yes
PREC   = Accurate # [Low/Medium/High/Accurate]
ENCUT  = 500      # energy cutoff
NELM   =  300     # max iteracions in SC loop
NELMIN = 3        # min iterations in SC loop
ISMEAR = -5; SIGMA = 0.10  #-5 for accurate total energy and DOS 0 for large cell 1 for metal
ICHARG = 11
LORBIT = 10       # 10 for normal   11 for complicated
LREAL = A         # F small molecule; A normal system 
#EDIFF  = 1.0E-5  # [Global break cond. for the elec. SC-loop] Energy
ALGO=Fast         # PBE;PW91 pure DFT
#AMIX = 0.4
#BMIX = 0.2
#AMIX_MAG = 0.8
#BMIX_MAG = 0.0001
#LMAXMIX=6
VOSKOWN =0        # 0 for PBE 1 for PW91


! GGA+U
#LDAU= T
#LDAUTYPE= 2
#LDAUL= 1  2 -1
#LDAUU= 7  4 0
#LDAUJ= 0.7  0.4 0


! Geometry 
#ISIF   = 0       # [Stress tensor, 0 = not, 3 = relax latt+ions] p. 60
EDIFFG = -0.05    # convergence criterion for forces
#NSW = 800         # max steps
#IBRION= 2         # 0 MD 1 Brodyn (opt,TS) 2 CG (opt)  3 damped MD(opt) 5  FC 
POTIM=0.2         # ion step size/ time step (fs) for MD

NWRITE = 1        # how much is written out
LCHARG = TRUE  # write restart charge file
LWAVE  = TRUE  # write restart wf file
NPAR   = 4        # adjust to number of processors;  best on berni up to 8 CPUs

