zjw uspex generated structure opt       
   1.00000000000000     
     5.9087589999999999    0.0000000000000006    0.0000000000000000
     0.0000000000000000    5.1171362133000002   -2.9543800893099998
     0.0000000000000000    0.0000000000000000   21.4863980000000012
  C    O     P    Ni
  1    1     14    14
Selective dynamics
Direct
  0.1678220048801428  0.2557830187802104  0.5759771665243733   T   T   T
  0.1678220048801428  0.2557830187802104  0.6277308387778613   T   T   T
  0.8091143875355258  0.4379017131005122  0.1995216241934481   T   T   T
  0.3083946812785809  0.2239920864757078  0.1329363176832759   T   T   T
  0.6370592878590989  0.9074984157564183  0.1855214341657484   T   T   T
  0.2120944347077725  0.9071201064741495  0.4906277468834394   T   T   T
  0.4510355808439452  0.3131130863120979  0.4332981242019159   T   T   T
  0.8047637310432922  0.3261818135790189  0.4952218567401444   T   T   T
  0.1444195515362323  0.4902883859425822  0.3107009858114966   T   T   T
  0.6063425793082993  0.6613116753989687  0.3547735096604558   T   T   T
  0.9567817465790317  0.1310401947600321  0.3620537613452016   T   T   T
  0.0807388716072221  0.5317994914509453  0.0546219635650699   T   T   T
  0.9031860796107516  0.8062962488194132  0.0199219364890898   T   T   T
  0.5756482500985065  0.2042313580383346  0.0581437457244535   T   T   T
  0.5303675222409412  0.7600974742253098  0.0046883804670999   T   T   T
  0.3183798439077831  0.8425028671167946  0.2342015644815548   T   T   T
  0.9477616664008853  0.2466459852236931  0.0904972488639729   T   T   T
  0.3489855325686251  0.8214681054573975  0.1104996639231435   T   T   T
  0.7131201901249330  0.5846658383407402  0.0707531904754658   T   T   T
  0.4434251479317476  0.2582849003003647  0.3197699823711049   T   T   T
  0.2993884866056669  0.9151882731034768  0.3489176762770942   T   T   T
  0.7442039639882169  0.5006563460247370  0.4224561509336131   T   T   T
  0.4404136903214080  0.4932177880589312  0.2430553660826949   T   T   T
 -0.0098768846003621  0.7415942360193328  0.1767474161448619   T   T   T
  0.8245838028887057  0.2555158293579202  0.2664440385504140   T   T   T
  0.5413985134886935  0.0046914036646051  0.4624130107835903   T   T   T
  0.1511572732936626  0.5031475788042185  0.4179841301757210   T   T   T
  0.9357667464819878  0.8546871233078880  0.4030667726113847   T   T   T
  0.7185143174687160  0.8552196561061794  0.2840507791278701   T   T   T
  0.1678220048801428  0.2557830187802104  0.4881076222666526   T   T   T
 
  0.00000000E+00  0.00000000E+00  0.00000000E+00
  0.00000000E+00  0.00000000E+00  0.00000000E+00
  0.00000000E+00  0.00000000E+00  0.00000000E+00
  0.00000000E+00  0.00000000E+00  0.00000000E+00
  0.00000000E+00  0.00000000E+00  0.00000000E+00
  0.00000000E+00  0.00000000E+00  0.00000000E+00
  0.00000000E+00  0.00000000E+00  0.00000000E+00
  0.00000000E+00  0.00000000E+00  0.00000000E+00
  0.00000000E+00  0.00000000E+00  0.00000000E+00
  0.00000000E+00  0.00000000E+00  0.00000000E+00
  0.00000000E+00  0.00000000E+00  0.00000000E+00
  0.00000000E+00  0.00000000E+00  0.00000000E+00
  0.00000000E+00  0.00000000E+00  0.00000000E+00
  0.00000000E+00  0.00000000E+00  0.00000000E+00
  0.00000000E+00  0.00000000E+00  0.00000000E+00
  0.00000000E+00  0.00000000E+00  0.00000000E+00
  0.00000000E+00  0.00000000E+00  0.00000000E+00
  0.00000000E+00  0.00000000E+00  0.00000000E+00
  0.00000000E+00  0.00000000E+00  0.00000000E+00
  0.00000000E+00  0.00000000E+00  0.00000000E+00
  0.00000000E+00  0.00000000E+00  0.00000000E+00
  0.00000000E+00  0.00000000E+00  0.00000000E+00
  0.00000000E+00  0.00000000E+00  0.00000000E+00
  0.00000000E+00  0.00000000E+00  0.00000000E+00
  0.00000000E+00  0.00000000E+00  0.00000000E+00
  0.00000000E+00  0.00000000E+00  0.00000000E+00
  0.00000000E+00  0.00000000E+00  0.00000000E+00
  0.00000000E+00  0.00000000E+00  0.00000000E+00
