zjw uspex generated structure opt
1.0000
       6.874149         0.0            0.0     
         0.0          6.874149         0.0     
         0.0            0.0         13.748298  
    P     Ni
    14    14
Selective dynamics
Direct
  0.194533            0.167684            0.098282             T   T   T
  0.839796            0.27874             0.113104             T   T   T
  0.222413            0.701052            0.183459             T   T   T
  0.354099            0.196221            0.373624             T   T   T
  0.542613            0.215083            0.076382             T   T   T
  0.0846810000000003  0.171596            0.290548             T   T   T
  0.222222            0.527777            0.45375              T   T   T
  0.256304            0.972791            0.4753               T   T   T
  0.608159            0.946411            0.490084             T   T   T
  0.945111            0.98137             0.1254               T   T   T
  0.894311            0.919827            0.305984             T   T   T
  0.96912             0.281169            0.467903             T   T   T
  0.889201            0.631617            0.471252             T   T   T
  0.941109            0.952746            0.470592             T   T   T
  0.704981            0.656706            0.337035             T   T   T
  0.409043            0.764383            0.397755             T   T   T
  0.831337            0.343859            0.332258             T   T   T
  0.874901            0.711153            0.17838              T   T   T
  0.069331            0.659082            0.327472             T   T   T
  0.626155            0.666474            0.053787             T   T   T
  0.618583            0.0475180000000001  0.3354               T   T   T
  0.644093            0.444773            0.194823             T   T   T
  0.065713            0.415647            0.195953             T   T   T
  0.542346            0.403467            0.442488             T   T   T
  0.345899            0.473497            0.094097             T   T   T
  0.509705            0.811897            0.205545             T   T   T
  0.389361            0.152898            0.215157             T   T   T
  0.369269            0.492997            0.292327             T   T   T
