zjw uspex generated structure opt
1.0000
         6.05           0.0            0.0     
         0.0           4.881           0.0     
         0.0            0.0            22.0    
    P     Ni
    14    14
Selective dynamics
Direct
  0.499085            0.588754            0.474251             T   T   T
  0.750009            0.837354            0.243787             T   T   T
  0.970604            0.553056            0.010455             T   T   T
  0.538835            0.062745            0.400959             T   T   T
  0.435158            0.018886            0.497338             T   T   T
  0.798865            0.305574            0.173651             T   T   T
  0.14067             0.256602            0.220039             T   T   T
  0.00637800000000005  0.054032            0.392927             T   T   T
  0.4375              0.198562            0.127082             T   T   T
  0.901205            0.633729            0.366519             T   T   T
  0.337809            0.723881            0.125038             T   T   T
  0.841828            0.910715            0.056372             T   T   T
  0.403841            0.839438            0.285502             T   T   T
  0.49365             0.273543            0.308731             T   T   T
  0.039678            2.00000000012311e-006  0.298295             T   T   T
  0.081184            0.0698840000000001  0.124356             T   T   T
  0.189035            0.499502            0.312233             T   T   T
  0.079543            0.032101            0.487654             T   T   T
  0.971954            0.559508            0.110401             T   T   T
  0.8161              0.410406            0.274269             T   T   T
  0.480443            0.486231            0.20873              T   T   T
  0.533096            0.637071            0.373145             T   T   T
  0.67051             0.293945            0.044944             T   T   T
  0.175023            0.500462            0.43153              T   T   T
  0.688921            0.874083            0.147259             T   T   T
  0.284666            0.407711            0.047671             T   T   T
  0.124943            0.731654            0.210196             T   T   T
  0.788882            0.341998            0.438799             T   T   T
