zjw uspex generated structure opt
1.0000
         6.05           0.0            0.0     
         0.0           4.881           0.0     
         0.0            0.0            22.0    
    P     Ni
    14    14
Selective dynamics
Direct
  0.691132            0.373985            0.497683             T   T   T
  0.1295              0.825322            0.170168             T   T   T
  0.22263             0.209032            0.079959             T   T   T
  0.769868            0.91508             0.075745             T   T   T
  0.714442            0.320929            0.21253              T   T   T
  0.314339            0.663177            0.093286             T   T   T
  0.313616            0.196747            0.199117             T   T   T
  0.480233            0.895685            0.019243             T   T   T
  0.750048            0.0159200000000001  0.422902             T   T   T
  0.026093            0.866407            0.291818             T   T   T
  0.140619            0.66596             0.460948             T   T   T
  0.347013            0.3289              0.384394             T   T   T
  0.59568             0.053858            0.289513             T   T   T
  0.00183200000000001  0.553287            0.368789             T   T   T
  0.937299            0.190935            0.141869             T   T   T
  0.985729            0.542068            0.046205             T   T   T
  0.061451            0.489309            0.231083             T   T   T
  0.574287            0.344826            0.103765             T   T   T
  0.434728            0.623743            0.198025             T   T   T
  0.723643            0.662807            0.27568              T   T   T
  0.798054            0.701096            0.157808             T   T   T
  0.983051            0.041977            0.002529             T   T   T
  0.515167            0.670045            0.437109             T   T   T
  0.347084            0.686887            0.323385             T   T   T
  0.101477            0.994679            0.392851             T   T   T
  0.3253              0.268505            0.483708             T   T   T
  0.68811             0.353711            0.362132             T   T   T
  0.255448            0.182102            0.296218             T   T   T
