zjw uspex generated structure opt
1.0000
         6.05           0.0            0.0     
         0.0           4.881           0.0     
         0.0            0.0            22.0    
    P     Ni
    14    14
Selective dynamics
Direct
  0.280259            0.198075            0.15306              T   T   T
  0.277981            0.804715            0.402485             T   T   T
  0.718155            0.55299             0.324255             T   T   T
  0.720727            0.480822            0.068461             T   T   T
  0.874841            0.233839            0.2188               T   T   T
  0.878858            0.751885            0.470765             T   T   T
  0.250106            0.30068             0.314924             T   T   T
  0.245088            0.695561            0.064653             T   T   T
  0.408967            0.152344            0.451563             T   T   T
  0.435057            0.838415            0.193691             T   T   T
  0.591039            0.141709            0.326729             T   T   T
  0.562402            0.842954            0.094922             T   T   T
  0.903995            0.731745            0.198053             T   T   T
  0.898983            0.242252            0.446389             T   T   T
  0.0181749999999999  0.534573            0.372698             T   T   T
  0.015907            0.451956            0.120458             T   T   T
  0.606715            0.482149            0.476247             T   T   T
  0.610477            0.510233            0.232805             T   T   T
  0.64011             0.835742            0.399282             T   T   T
  0.64722             0.207149            0.145423             T   T   T
  0.397318            0.253486            0.058796             T   T   T
  0.385992            0.742373            0.310578             T   T   T
  0.197111            0.511644            0.472963             T   T   T
  0.203726            0.491316            0.222292             T   T   T
  0.983175            0.03794             0.357719             T   T   T
  0.982707            0.948502            0.113056             T   T   T
  0.111955            0.022699            0.008849             T   T   T
  0.127977            0.984546            0.252062             T   T   T
