zjw uspex generated structure opt
1.0000
       5.632137         0.0            0.0     
         0.0          5.632137         0.0     
         0.0            0.0         20.480498  
    P     Ni
    14    14
Selective dynamics
Direct
  0.324243            0.496069            0.120384             T   T   T
  0.804041            0.00821900000000005  0.36983              T   T   T
  0.195523            0.993659999999999   0.379664             T   T   T
  0.704088            0.524733            0.13022              T   T   T
  0.531305            0.790727            0.410688             T   T   T
  0.993235            0.906558999999999   0.10996              T   T   T
  0.970818            0.295869            0.0904               T   T   T
  0.516725            0.400513            0.393443             T   T   T
  0.999591999999999   0.50013             0.363711             T   T   T
  0.503709            0.00171200000000008  0.131762             T   T   T
  0.872454            0.794225            0.009906             T   T   T
  0.356073            0.565624            0.016652             T   T   T
  0.629053            0.293813            0.490876             T   T   T
  0.141274            0.065915            0.482096             T   T   T
  0.0169320000000001  0.498299            0.245901             T   T   T
  0.483343            0.00458200000000001  0.254141             T   T   T
  0.78076             0.803202            0.191576             T   T   T
  0.286967            0.705346            0.318922             T   T   T
  0.719683            0.295512            0.310356             T   T   T
  0.216693            0.205773            0.179398             T   T   T
  0.279115            0.286587            0.320276             T   T   T
  0.779821            0.213665            0.187734             T   T   T
  0.22992             0.783856            0.181109             T   T   T
  0.720709            0.710383            0.310883             T   T   T
  8.2e-005            0.433677            0.481573             T   T   T
  0.499945            0.933245            0.018217             T   T   T
  0.017598            0.003241            0.272836             T   T   T
  0.48668             0.494625            0.227884             T   T   T
