xyz H C O Ti 
1.000000
     8.876040000000000      0.000000000000000      0.000000000000000 
     0.000000000000000      6.496416272930790      0.000000000000000 
     0.000000000000000      0.000000000000000     22.309144504871799 
       H       C       O      Ti
       3       1      48      24
Selective
Direct
     0.311074394406470     0.669542914447380     0.655545510772009       T       T       T
     0.209587120935068     0.419648118811867     0.666540906244459       T       T       T
     0.421256223519331     0.427545345400764     0.668643853289898       T       T       T
     0.314435629424302     0.502375231111110     0.658515069877475       T       T       T
     0.167721710164732     0.688057832457175     0.044935760048059       F       F       F
     0.167718521262085     0.311885273237552     0.044937320243903       F       F       F
     0.501050518227489     0.688059344651918     0.044937475970992       F       F       F
     0.501050941454044     0.311885223260066     0.044937667493622       F       F       F
     0.834384273586726     0.311885470870507     0.044947397582841       F       F       F
     0.834382829468923     0.688059673191600     0.044947909334469       F       F       F
     0.000929355770768     0.999972931437321     0.105377221998670       F       F       F
     0.667666118447611     0.999972874919616     0.105379104127800       F       F       F
     0.334296614027273     0.999972353128417     0.105384438759642       F       F       F
     0.000970013264976     0.499971364056115     0.144326240907296       F       F       F
     0.667463635283505     0.499971352391950     0.144327576281315       F       F       F
     0.334216665227004     0.499971568510759     0.144351101789136       F       F       F
     0.834229772610890     0.802432209115292     0.198819670085462       F       F       F
     0.834231461064667     0.197506807281697     0.198822110089651       F       F       F
     0.167465023250338     0.802498527344887     0.198823479878564       F       F       F
     0.167464137032091     0.197444196852317     0.198825110254137       F       F       F
     0.500984276262508     0.802506980013345     0.198831662518196       F       F       F
     0.500983989787325     0.197436639814811     0.198832679316317       F       F       F
     0.334184710389804     0.499976785008004     0.262198301935165       F       F       F
     0.000562963312634     0.499969219930207     0.262250080325157       F       F       F
     0.667828537777321     0.499970596765383     0.262255466245832       F       F       F
     0.334207937475902     0.999958559747941     0.290069471637980       T       T       T
     0.667835123502588     0.999963376958111     0.290316138822290       T       T       T
     0.000688819693892     0.999927188434441     0.290345725857371       T       T       T
     0.834153643887230     0.302820486119366     0.352563593152166       T       T       T
     0.834158583113503     0.697071983754324     0.352584150550035       T       T       T
     0.500958028773904     0.302879707804669     0.352621625605187       T       T       T
     0.500973604645665     0.697041202426479     0.352625269627243       T       T       T
     0.167437074705705     0.302882887893926     0.352643928628136       T       T       T
     0.167417582813985     0.697034785250893     0.352648123577021       T       T       T
     0.334292953075515     0.999930072959192     0.408011122790299       T       T       T
     0.001472664963691     0.999969089835411     0.408111431535923       T       T       T
     0.666668884014406     0.999936163588161     0.408158266338302       T       T       T
     0.000069527412790     0.499796808244672     0.444033132137351       T       T       T
     0.667862460021715     0.499835326368000     0.444110012864508       T       T       T
     0.334289410047667     0.500005525786834     0.444900530138231       T       T       T
     0.834019531944581     0.811672717115595     0.505692235559042       T       T       T
     0.834010788515169     0.188107746228490     0.505724159913928       T       T       T
     0.168983906471621     0.808998376218208     0.506794122265952       T       T       T
     0.169016706402531     0.190647842717315     0.506890112731980       T       T       T
     0.499050276768558     0.190399884193675     0.507397627799390       T       T       T
     0.499042337467633     0.809220256338796     0.507480663128353       T       T       T
     0.002453614221308     0.500020193010693     0.559814140252249       T       T       T
     0.665955582846737     0.500087471903095     0.559875208519234       T       T       T
     0.332944747138445     0.498188706072806     0.568195906860522       T       T       T
     0.334239335062010     0.999973386454284     0.988178346142569       F       F       F
     0.000932678314351     0.999972388617065     0.988181045602296       F       F       F
     0.667553920140508     0.999971294497322     0.988182276295954       F       F       F
     0.834255435801879     0.999972305073906     0.037592112287572       F       F       F
     0.500915671578144     0.999972221339878     0.037614333752431       F       F       F
     0.167602754074900     0.999971180102041     0.037615225074377       F       F       F
     0.001028378382304     0.499972250265481     0.060349470784573       F       F       F
     0.667667095625854     0.499972903466590     0.060351703388660       F       F       F
     0.334351620238253     0.499971267136300     0.060359905812594       F       F       F
     0.000908985955262     0.999969933571038     0.188753046164456       F       F       F
     0.667537769489688     0.999971265860490     0.188756825925957       F       F       F
     0.334220059121307     0.999971673279671     0.188787192641483       F       F       F
     0.834172825967733     0.499970972535505     0.206094335451470       F       F       F
     0.168048621691882     0.499972596581005     0.206721394205007       F       F       F
     0.500331267597553     0.499972149930017     0.206749112506101       F       F       F
     0.500713404672928     0.999965982326337     0.343478612230717       T       T       T
     0.167785352887703     0.999960885068673     0.343515869688673       T       T       T
     0.834235009363715     0.999955415245362     0.343732655930062       T       T       T
     0.000803989082937     0.499941413710368     0.356282103288394       T       T       T
     0.667521731150076     0.499946843625199     0.356341101382930       T       T       T
     0.334195669286094     0.499975864815387     0.358950781259529       T       T       T
     0.000626212173433     0.999848029311813     0.490698933436848       T       T       T
     0.667519607405251     0.999908764903734     0.490749164959825       T       T       T
     0.333961499979154     0.999769767959679     0.490783890863559       T       T       T
     0.157608075256208     0.499974500819474     0.505482259187821       T       T       T
     0.510569694495933     0.499842519614223     0.505732541630748       T       T       T
     0.834107493006849     0.499894257314080     0.510754485415003       T       T       T

