zjw uspex generated structure opt
1.0000
         6.05           0.0            0.0     
         0.0           4.881           0.0     
         0.0            0.0            22.0    
    P     Ni
    14    14
Selective dynamics
Direct
  0.307097            0.887716            0.081249             T   T   T
  0.940557            0.910684            0.030963             T   T   T
  0.128921            0.588423            0.272636             T   T   T
  0.769026            0.427011            0.280237             T   T   T
  0.729856            0.977073            0.167496             T   T   T
  0.292629            0.642836            0.170396             T   T   T
  0.622075            0.826569            0.445787             T   T   T
  0.037992            0.946962            0.359554             T   T   T
  0.576692            0.27669             0.45445              T   T   T
  0.12388             0.482143            0.465688             T   T   T
  0.435114            0.410951            0.36886              T   T   T
  0.249884            0.161007            0.244017             T   T   T
  0.402907            0.0157330000000001  0.33097              T   T   T
  0.933809            0.3761              0.106013             T   T   T
  0.550026            0.324444            0.199795             T   T   T
  0.292162            0.342667            0.095941             T   T   T
  0.8116              0.509893            0.013206             T   T   T
  0.08715             0.028491            0.15815              T   T   T
  0.620672            0.638172            0.11113              T   T   T
  0.913696            0.599793            0.191812             T   T   T
  0.650941            0.126342            0.074236             T   T   T
  0.672438            0.726443            0.349186             T   T   T
  0.515037            0.792922            0.244396             T   T   T
  0.28535             0.070898            0.488521             T   T   T
  0.420134            0.599787            0.010497             T   T   T
  0.895939            0.997514            0.265563             T   T   T
  0.916177            0.12837             0.442416             T   T   T
  0.062663            0.484147            0.368619             T   T   T
