zjw uspex generated structure opt
1.0000
         6.05           0.0            0.0     
         0.0           4.881           0.0     
         0.0            0.0            22.0    
    P     Ni
    14    14
Selective dynamics
Direct
  0.873886            0.589737            0.147855             T   T   T
  0.305985            0.452509            0.049524             T   T   T
  0.734363            0.637587            0.486384             T   T   T
  0.376234            0.983573            0.161231             T   T   T
  0.622615            0.911082            0.060537             T   T   T
  0.283456            0.554286            0.210647             T   T   T
  0.998171            0.942057            0.089199             T   T   T
  0.172065            0.10174             0.296903             T   T   T
  0.48433             0.163163            0.415468             T   T   T
  0.976101            0.260701            0.474309             T   T   T
  0.15866             0.803657            0.372834             T   T   T
  0.351709            0.068361            0.004167             T   T   T
  0.522244            0.054389            0.251341             T   T   T
  0.714329            0.727041            0.325946             T   T   T
  0.508571            0.591567            0.124243             T   T   T
  0.145054            0.296183            0.133984             T   T   T
  0.798184            0.306006            0.062522             T   T   T
  0.042611            0.907116            0.212218             T   T   T
  0.731726            0.174389            0.171848             T   T   T
  0.669783            0.637398            0.22896              T   T   T
  0.033784            0.554723            0.291489             T   T   T
  0.469008            0.701909            0.411238             T   T   T
  0.436881            0.428064            0.30427              T   T   T
  0.122003            0.716469            0.487357             T   T   T
  0.170143            0.348662            0.387565             T   T   T
  0.81128             0.150463            0.298506             T   T   T
  0.840404            0.93194             0.413217             T   T   T
  0.772574            0.408478            0.394087             T   T   T
