zjw uspex generated structure opt
1.0000
         6.05           0.0            0.0     
         0.0           4.881           0.0     
         0.0            0.0            22.0    
    P     Ni
    14    14
Selective dynamics
Direct
  0.497921            0.807585            0.33557              T   T   T
  0.972498            0.696438            0.089267             T   T   T
  0.032707            0.371571            0.435573             T   T   T
  0.435049            0.839329            0.172838             T   T   T
  0.607652            0.717908            0.427961             T   T   T
  0.843823            0.878686            0.194937             T   T   T
  0.067338            0.668839            0.350274             T   T   T
  0.494068            0.666866            0.066114             T   T   T
  0.423572            0.21883             0.071959             T   T   T
  0.062495            0.198564            0.310417             T   T   T
  0.910738            0.328084            0.158155             T   T   T
  0.593764            0.271245            0.405142             T   T   T
  0.062196            0.734517            0.493298             T   T   T
  0.54678             0.1364              0.253349             T   T   T
  0.818721            0.892161            0.294942             T   T   T
  0.761294            0.40588             0.037303             T   T   T
  0.367882            0.430829            0.479319             T   T   T
  0.188282            0.100371            0.217255             T   T   T
  0.708984            0.99953             0.106852             T   T   T
  0.746824            0.411552            0.318595             T   T   T
  0.253215            0.491982            0.136686             T   T   T
  0.259396            0.0786220000000001  0.389573             T   T   T
  0.078545            0.119271            0.054343             T   T   T
  0.35159             0.448398            0.301623             T   T   T
  0.633889            0.517455            0.212951             T   T   T
  0.818473            0.0370720000000001  0.462792             T   T   T
  0.391129            0.934106            0.492394             T   T   T
  0.052604            0.578361            0.236205             T   T   T
