zjw uspex generated structure opt
1.0000
         6.05           0.0            0.0     
         0.0           4.881           0.0     
         0.0            0.0            22.0    
    P     Ni
    14    14
Selective dynamics
Direct
  0.059136            0.732534            0.018745             T   T   T
  0.312079            0.125133            0.260568             T   T   T
  0.938704            0.038147            0.086547             T   T   T
  0.940381            0.125257            0.205701             T   T   T
  0.376103            0.51786             0.324092             T   T   T
  0.687138            0.124984            0.014381             T   T   T
  0.649944            0.464091            0.137491             T   T   T
  0.28365             0.803711            0.143835             T   T   T
  0.279989            0.235607            0.460541             T   T   T
  0.688279            0.040744            0.366618             T   T   T
  0.606319            0.462249            0.447078             T   T   T
  0.940905            0.625539            0.277129             T   T   T
  0.148689            0.717408            0.391669             T   T   T
  0.329669            0.530682            0.064159             T   T   T
  0.943158            0.661719            0.175762             T   T   T
  0.279189            0.649479            0.236224             T   T   T
  0.650546            0.370952            0.235728             T   T   T
  0.307925            0.09074             0.057351             T   T   T
  0.635356            0.974733            0.149738             T   T   T
  0.688763            0.623302            0.043632             T   T   T
  0.294491            0.278645            0.162349             T   T   T
  0.968372            0.305327            0.418398             T   T   T
  0.616355            0.864943            0.276943             T   T   T
  0.828176            0.822667            0.444064             T   T   T
  0.397106            0.810874            0.467828             T   T   T
  0.715833            0.500039            0.350978             T   T   T
  0.970279            0.107888            0.304788             T   T   T
  0.323962            0.099085            0.365701             T   T   T
