zjw uspex generated structure opt
1.0000
       5.632137         0.0            0.0     
         0.0          5.632137         0.0     
         0.0            0.0         20.480498  
    P     Ni
    14    14
Selective dynamics
Direct
  0.107656            0.137022            0.314523             T   T   T
  0.739039            0.809582            0.313938             T   T   T
  0.428775            0.139746            0.427855             T   T   T
  0.606143            0.65343             0.403971             T   T   T
  0.417771            0.611049            0.091745             T   T   T
  0.869948999999999   0.424855            0.073508             T   T   T
  0.067063            0.650118            0.152764             T   T   T
  0.799685            0.249985            0.171325             T   T   T
  0.0984990000000001  0.637389            0.284832             T   T   T
  0.0664430000000001  0.566423            0.446701             T   T   T
  0.431176            0.0390940000000001  0.062915             T   T   T
  0.462949            0.043067            0.176436             T   T   T
  0.961002            0.969231            0.444819             T   T   T
  0.500335            0.358604            0.342392             T   T   T
  0.701855            0.180049            0.002302             T   T   T
  0.129401            0.811996            0.043856             T   T   T
  0.3993              0.882954            0.26916              T   T   T
  0.747945            0.17457             0.280166             T   T   T
  0.729599            0.583207            0.227388             T   T   T
  0.343629            0.346501            0.247088             T   T   T
  0.132956            0.220743            0.005891             T   T   T
  0.74997             0.726014            0.004417             T   T   T
  0.721566            0.819447            0.123809             T   T   T
  0.218121            0.291222            0.127235             T   T   T
  0.859066            0.308085            0.392502             T   T   T
  0.244719            0.827091            0.378252             T   T   T
  0.051652            0.98261             0.206361             T   T   T
  0.409641            0.506122            0.487524             T   T   T
