zjw uspex generated structure opt
1.0000
       5.908759     6.26668361329e-16       0.0     
         0.0        5.1171362133   -2.95438008931
         0.0            0.0         21.486398  
    P     Ni
    14    14
Selective dynamics
Direct
  0.39518             0.155903            0.250016             T   T   T
  0.00918999999999996  0.416555            0.179519             T   T   T
  0.780971            0.770242            0.168959             T   T   T
  0.426432            0.36458             0.357293             T   T   T
  0.547427            0.895026            0.361062             T   T   T
  0.873989            0.527337            0.33482              T   T   T
  0.40992             0.447177            0.062464             T   T   T
  0.382413            0.0735229999999999  0.139607             T   T   T
  0.967737            0.376006            0.455781             T   T   T
  0.722405            0.110444            0.03125              T   T   T
  0.054275            0.80061             0.436951             T   T   T
  0.469754            0.470747            0.455855             T   T   T
  0.03362             0.790937            0.0625               T   T   T
  0.780875            0.885697            0.27676              T   T   T
  0.0308300000000001  0.738935            0.243627             T   T   T
  0.383117            0.417678            0.179408             T   T   T
  0.013993            0.127467            0.109763             T   T   T
  0.958988            0.213495            0.36232              T   T   T
  0.736514            0.875743            0.443827             T   T   T
  0.204466            0.942256            0.34348              T   T   T
  0.328598            0.732826            0.0016820000000001   T   T   T
  0.271603            0.672363            0.110359             T   T   T
  0.309428            0.575981            0.297291             T   T   T
  0.48382             0.860133            0.207466             T   T   T
  0.127807            0.122398            0.00239700000000001   T   T   T
  0.805942            0.25557             0.261628             T   T   T
  0.738424            0.409567            0.099834             T   T   T
  0.492391            0.120067            0.439428             T   T   T
