zjw uspex generated structure opt
1.0000
         6.05           0.0            0.0     
         0.0           4.881           0.0     
         0.0            0.0            22.0    
    P     Ni
    14    14
Selective dynamics
Direct
  0.838464            0.152309            0.024614             T   T   T
  0.155669            0.6234              0.464391             T   T   T
  0.232266            0.337833            0.084731             T   T   T
  0.828468            0.889658            0.110711             T   T   T
  0.689843            0.232727            0.160198             T   T   T
  0.515662            0.744566            0.003098             T   T   T
  0.053682            0.339689            0.323503             T   T   T
  0.140625            0.142929            0.466656             T   T   T
  0.941166            0.66178             0.381029             T   T   T
  0.35388             0.732709            0.158229             T   T   T
  0.510969            0.700698            0.375748             T   T   T
  0.560696            0.160143            0.402117             T   T   T
  0.578092            0.648293            0.269766             T   T   T
  0.156601            0.912822            0.2683               T   T   T
  0.99018             0.538398            0.150282             T   T   T
  0.943919            0.569581            0.042166             T   T   T
  0.241643            0.892072            0.063169             T   T   T
  0.572517            0.541471            0.090869             T   T   T
  0.230359            0.488702            0.236402             T   T   T
  0.821977            0.335877            0.248337             T   T   T
  0.844945            0.847855            0.224728             T   T   T
  0.120333            0.073819            0.162508             T   T   T
  0.485182            0.190209            0.003716             T   T   T
  0.423607            0.325002            0.322009             T   T   T
  0.190982            0.983275            0.372685             T   T   T
  0.729205            0.503636            0.448522             T   T   T
  0.783309            0.992909            0.331471             T   T   T
  0.466446            0.043504            0.226444             T   T   T
