zjw uspex generated structure opt
1.0000
         6.05           0.0            0.0     
         0.0           4.881           0.0     
         0.0            0.0            22.0    
    P     Ni
    14    14
Selective dynamics
Direct
  0.246236            0.340336            0.381                T   T   T
  0.723975            0.117781            0.108332             T   T   T
  0.216312            0.196689            0.48552              T   T   T
  0.921898            0.935236            0.246627             T   T   T
  0.531187            0.12305             0.310426             T   T   T
  0.606122            0.0892850000000001  0.207252             T   T   T
  0.786709            0.619467            0.372112             T   T   T
  0.820403            0.945091            0.015016             T   T   T
  0.174404            0.270047            0.134713             T   T   T
  0.534954            0.661789            0.181014             T   T   T
  0.154431            0.839549            0.114491             T   T   T
  0.689936            0.0533210000000001  0.410519             T   T   T
  0.743369            0.495419            0.031153             T   T   T
  0.418596            0.536117            0.278796             T   T   T
  0.079866            0.677419            0.315223             T   T   T
  0.115211            0.658304            0.024213             T   T   T
  0.788962            0.494656            0.242561             T   T   T
  0.050453            0.894644            0.41902              T   T   T
  0.874828            0.530092            0.125812             T   T   T
  0.916766            0.201219            0.331248             T   T   T
  0.419316            0.291435            0.062578             T   T   T
  0.434687            0.751171            0.367586             T   T   T
  0.503405            0.769932            0.083452             T   T   T
  0.461195            0.88948             0.478428             T   T   T
  0.224983            0.163511            0.232345             T   T   T
  0.516976            0.4056              0.452128             T   T   T
  0.173529            0.649111            0.204845             T   T   T
  0.925864            0.380849            0.445634             T   T   T
