zjw uspex generated structure opt
1.0000
         6.05           0.0            0.0     
         0.0           4.881           0.0     
         0.0            0.0            22.0    
    P     Ni
    14    14
Selective dynamics
Direct
  0.845658            0.0529230000000001  0.006249             T   T   T
  0.18264             0.982054            0.197555             T   T   T
  0.300516            0.232113            0.068029             T   T   T
  0.853497            0.822114            0.091676             T   T   T
  0.746228            0.253167            0.138486             T   T   T
  0.381996            0.810336            0.016011             T   T   T
  0.305365            0.425696            0.225038             T   T   T
  0.156095            0.300176            0.460253             T   T   T
  0.876412            0.728321            0.381282             T   T   T
  0.501987            0.696441            0.168659             T   T   T
  0.394396            0.711676            0.402402             T   T   T
  0.527964            0.150174            0.384379             T   T   T
  0.649917            0.678442            0.287515             T   T   T
  0.00069399999999998  0.394326            0.328126             T   T   T
  0.0961820000000001  0.350443            0.147966             T   T   T
  0.972381            0.431143            0.045805             T   T   T
  0.223542            0.807198            0.106068             T   T   T
  0.570489            0.528325            0.075703             T   T   T
  0.105805            0.74691             0.275289             T   T   T
  0.833077            0.391668            0.233644             T   T   T
  0.802609            0.894525            0.200383             T   T   T
  0.088545            0.747806            0.461335             T   T   T
  0.520078            0.211995            0.483938             T   T   T
  0.372872            0.440792            0.32417              T   T   T
  0.154321            0.053344            0.372716             T   T   T
  0.684287            0.670931            0.465359             T   T   T
  0.791694            0.049233            0.320628             T   T   T
  0.462367            0.04405             0.256491             T   T   T
