zjw uspex generated structure opt
1.0000
       5.908759     6.26668361329e-16       0.0     
         0.0        5.1171362133   -2.95438008931
         0.0            0.0         21.486398  
    P     Ni
    14    14
Selective dynamics
Direct
  0.436521            0.965416            0.385302             T   T   T
  0.415296            0.531625            0.339807             T   T   T
  0.889703            0.215736            0.225714             T   T   T
  0.550598            0.416292            0.253135             T   T   T
  0.917478            0.036997            0.368182             T   T   T
  0.010555            0.198167            0.464364             T   T   T
  0.124969            0.656076            0.310765             T   T   T
  0.203004            0.699126            0.00463400000000006   T   T   T
  0.489113            0.968387            0.18741              T   T   T
  0.35316             0.101254            0.470505             T   T   T
  0.901955            0.816073            0.130452             T   T   T
  0.239503            0.344403            0.107076             T   T   T
  0.719181            0.17675             0.080332             T   T   T
  0.71288             0.658664            0.42555              T   T   T
  0.410978            0.485595            0.00206600000000002   T   T   T
  0.733924            0.842817            0.278494             T   T   T
  0.599744            0.393707            0.147154             T   T   T
  0.321465            0.554652            0.200557             T   T   T
  0.0267370000000001  0.563584            0.406882             T   T   T
  0.533071            0.773737            0.100167             T   T   T
  0.959102            0.623349            0.220635             T   T   T
  0.174701            0.093946            0.198996             T   T   T
  0.263385            0.099229            0.3156               T   T   T
  0.034034            0.5548              0.098272             T   T   T
  0.295831            0.033853            0.076341             T   T   T
  0.751133            0.255458            0.320629             T   T   T
  0.762519            0.369044            0.494662             T   T   T
  0.880455            0.835647            0.0208440000000001   T   T   T
