zjw uspex generated structure opt
1.0000
         6.05           0.0            0.0     
         0.0           4.881           0.0     
         0.0            0.0            22.0    
    P     Ni
    14    14
Selective dynamics
Direct
  0.82351             0.709801            0.194028             T   T   T
  0.160297            0.344921            0.181292             T   T   T
  0.224899            0.744951            0.229348             T   T   T
  0.518882            0.965352            0.32732              T   T   T
  0.301327            0.0543940000000001  0.058327             T   T   T
  0.916292            0.620458            0.025276             T   T   T
  0.627073            0.1255              0.451892             T   T   T
  0.218747            0.378311            0.488558             T   T   T
  0.65625             0.379334            0.246916             T   T   T
  0.909849            0.374303            0.319131             T   T   T
  0.655994            0.576188            0.433224             T   T   T
  0.534688            0.732766            0.127402             T   T   T
  0.982948            0.961827            0.10559              T   T   T
  0.378988            0.579868            0.366867             T   T   T
  0.475013            0.254779            0.136119             T   T   T
  0.215592            0.59688             0.088067             T   T   T
  0.265292            0.142162            0.393816             T   T   T
  0.305452            0.319573            0.284928             T   T   T
  0.836082            0.0183930000000001  0.373956             T   T   T
  0.864544            0.38873             0.120036             T   T   T
  0.959543            0.0724480000000001  0.241302             T   T   T
  0.576707            0.482207            0.036477             T   T   T
  0.997959            0.017565            0.476933             T   T   T
  0.101169            0.757533            0.319638             T   T   T
  0.541197            0.963795            0.224671             T   T   T
  0.014879            0.569611            0.417064             T   T   T
  0.370515            0.803535            0.474141             T   T   T
  0.680307            0.992377            0.051511             T   T   T
