zjw uspex generated structure opt
1.0000
       5.908759     6.26668361329e-16       0.0     
         0.0        5.1171362133   -2.95438008931
         0.0            0.0         21.486398  
    P     Ni
    14    14
Selective dynamics
Direct
  0.69009             0.470073            0.179625             T   T   T
  0.9866              0.156164            0.206412             T   T   T
  0.46206             0.845041            0.146635             T   T   T
  0.0421749999999999  0.563004            0.419493             T   T   T
  0.375266            0.218875            0.444605             T   T   T
  0.811161            0.822481            0.437398             T   T   T
  0.856165            0.269266            0.316976             T   T   T
  0.532379            0.814521            0.33877              T   T   T
  0.072081            0.754114            0.276731             T   T   T
  0.970649            0.220106            0.071954             T   T   T
  0.918743            0.652582            0.085292             T   T   T
  0.277111            0.102095            0.09005              T   T   T
  0.405691            0.59089             0.004478             T   T   T
  0.437152            0.28435             0.290305             T   T   T
  0.560873            0.991269            0.0524480000000001   T   T   T
  0.079284            0.485114            0.148915             T   T   T
  0.507111            0.541199            0.098782             T   T   T
  0.235844            0.36452             0.368515             T   T   T
  0.240076            0.952029            0.361662             T   T   T
  0.761173            0.589857            0.352082             T   T   T
  0.232273            0.498482            0.261347             T   T   T
  0.113014            0.888066            0.179836             T   T   T
  0.576474            0.085596            0.227635             T   T   T
  0.507123            0.924923            0.441123             T   T   T
  0.015063            0.233274            0.472376             T   T   T
  0.728916            0.456816            0.494923             T   T   T
  0.716553            0.764107            0.248131             T   T   T
  0.130505            0.872785            0.0015730000000001   T   T   T
