zjw uspex generated structure opt
1.0000
       5.908759     6.26668361329e-16       0.0     
         0.0        5.1171362133   -2.95438008931
         0.0            0.0         21.486398  
    P     Ni
    14    14
Selective dynamics
Direct
  0.613777            0.311994            0.133969             T   T   T
  0.957399            0.964011            0.327127             T   T   T
  0.375912            0.686357            0.161214             T   T   T
  0.322082            0.568637            0.413853             T   T   T
  0.782964            0.560816            0.45095              T   T   T
  0.904171            0.968768            0.475352             T   T   T
  0.625293            0.301598            0.35721              T   T   T
  0.281073            0.593742            0.016061             T   T   T
  0.217466            0.657574            0.277839             T   T   T
  0.00103299999999997  0.939507            0.223716             T   T   T
  0.032226            0.720726            0.098643             T   T   T
  0.937169            0.0420429999999999  0.080409             T   T   T
  0.417659            0.219587            0.016654             T   T   T
  0.529741            0.279717            0.240682             T   T   T
  0.493469            0.952139            0.076784             T   T   T
  0.738017            0.0573900000000001  0.17683              T   T   T
  0.571949            0.586422            0.07582              T   T   T
  0.313764            0.369586            0.321664             T   T   T
  0.539064            0.87915             0.345996             T   T   T
  0.043279            0.680612            0.369669             T   T   T
  0.92211             0.234181            0.401799             T   T   T
  0.228412            0.269601            0.160736             T   T   T
  0.867254            0.263194            0.283876             T   T   T
  0.52692             0.961649            0.462031             T   T   T
  0.274404            0.149803            0.419401             T   T   T
  0.588362            0.680342            0.245922             T   T   T
  0.96503             0.566695            0.194307             T   T   T
  0.863519            0.381905            0.031193             T   T   T
