zjw uspex generated structure opt
1.0000
       6.874149         0.0            0.0     
         0.0          6.874149         0.0     
         0.0            0.0         13.748298  
    P     Ni
    14    14
Selective dynamics
Direct
  0.207991            0.000827000000000155  0.499913             T   T   T
  0.786387            0.999862            0.00026              T   T   T
  0.998694            0.00674000000000028  0.107882             T   T   T
  0.00457200000000027  0.996502            0.394825             T   T   T
  0.994828            0.213049            0.497077             T   T   T
  0.99629             0.791469            9.8e-005             T   T   T
  0.006544            0.006643            0.497588             T   T   T
  0.495332            0.002316            0.499363             T   T   T
  0.000826            0.002607            0.247198             T   T   T
  0.006809            0.495011            0.001609             T   T   T
  0.255549            0.246906            0.127297             T   T   T
  0.755592            0.246671            0.126918             T   T   T
  0.2566              0.743695            0.12245              T   T   T
  0.255718            0.244453            0.374381             T   T   T
  0.71297             0.496916            0.246694             T   T   T
  0.281902            0.501167            0.247219             T   T   T
  0.501433            0.50378             0.359614             T   T   T
  0.505163            0.499428            0.141549             T   T   T
  0.496884            0.70843             0.246605             T   T   T
  0.501492            0.281507            0.248728             T   T   T
  0.502936            0.500596            0.253371             T   T   T
  0.004912            0.498132            0.253358             T   T   T
  0.500345            0.501426            0.003154             T   T   T
  0.49649             0.993995            0.250109             T   T   T
  0.747484            0.749228            0.372763             T   T   T
  0.250619            0.743249            0.372162             T   T   T
  0.743078            0.247914            0.371624             T   T   T
  0.744204            0.756451            0.127455             T   T   T
