zjw uspex generated structure opt
1.0000
         6.05           0.0            0.0     
         0.0           4.881           0.0     
         0.0            0.0            22.0    
    P     Ni
    14    14
Selective dynamics
Direct
  0.496383            0.371412            0.105981             T   T   T
  0.465218            0.708103            0.369123             T   T   T
  0.498076            0.81132             0.099389             T   T   T
  0.523644            0.120014            0.426499             T   T   T
  0.183796            0.861154            0.317271             T   T   T
  0.883286            0.524111            0.164217             T   T   T
  0.716393            0.942038            0.307826             T   T   T
  0.430302            0.310717            0.207414             T   T   T
  0.625373            0.840464            0.193677             T   T   T
  0.155031            0.305402            0.323901             T   T   T
  0.145641            0.0304100000000001  0.205322             T   T   T
  0.691442            0.452102            0.310128             T   T   T
  0.0725639999999999  0.0158540000000001  0.035107             T   T   T
  0.968746            0.557322            0.47116              T   T   T
  0.804657            0.592551            0.062313             T   T   T
  0.192666            0.929494            0.439473             T   T   T
  0.286039            0.629771            0.02532              T   T   T
  0.787283            0.980369            0.483377             T   T   T
  0.24596             0.413967            0.416464             T   T   T
  0.782425            0.0977110000000001  0.102601             T   T   T
  0.612723            0.531663            0.45954              T   T   T
  0.420528            0.137903            0.024383             T   T   T
  0.864624            0.22429             0.386482             T   T   T
  0.131246            0.802745            0.123271             T   T   T
  0.913146            0.718115            0.375811             T   T   T
  0.141534            0.311048            0.106498             T   T   T
  0.819324            0.198267            0.228405             T   T   T
  0.15082             0.593595            0.237639             T   T   T
