zjw uspex generated structure opt
1.0000
       5.908759     6.26668361329e-16       0.0     
         0.0        5.1171362133   -2.95438008931
         0.0            0.0         21.486398  
    P     Ni
    14    14
Selective dynamics
Direct
  0.8129              0.542337            0.178629             T   T   T
  0.217873            0.126188            0.186986             T   T   T
  0.562501            0.941193            0.165367             T   T   T
  0.158289            0.762319            0.42049              T   T   T
  0.442366            0.377064            0.420979             T   T   T
  0.863209            0.984403            0.43326              T   T   T
  0.127631            0.439944            0.295812             T   T   T
  0.623277            0.939221            0.352717             T   T   T
  0.988337            0.754593            0.310508             T   T   T
  0.885707            0.323565            0.044742             T   T   T
  0.010854            0.750409            0.071286             T   T   T
  0.320076            0.259532            0.092067             T   T   T
  0.490405            0.714638            0.00508800000000001   T   T   T
  0.771565            0.916104            0.264761             T   T   T
  0.489793            0.00222399999999996  0.070065             T   T   T
  0.175653            0.546511            0.121063             T   T   T
  0.634259            0.674426            0.102369             T   T   T
  0.550808            0.222246            0.245961             T   T   T
  0.34357             0.064924            0.350151             T   T   T
  0.829186            0.399813            0.368958             T   T   T
  0.467861            0.571533            0.213672             T   T   T
  0.188328            0.767434            0.224864             T   T   T
  0.945697            0.255472            0.206825             T   T   T
  0.570798            0.099624            0.457067             T   T   T
  0.113405            0.402826            0.459276             T   T   T
  0.800482            0.605666            0.478513             T   T   T
  0.511084            0.524963            0.325958             T   T   T
  0.175012            0.053196            0.001524             T   T   T
