zjw uspex generated structure opt
1.0000
         6.05           0.0            0.0     
         0.0           4.881           0.0     
         0.0            0.0            22.0    
    P     Ni
    14    14
Selective dynamics
Direct
  0.320964            0.439507            0.02404              T   T   T
  0.092316            0.659449            0.202256             T   T   T
  0.810098            0.446713            0.077113             T   T   T
  0.980596            0.212681            0.445132             T   T   T
  0.960189            0.647556            0.337627             T   T   T
  0.4181              0.725734            0.387137             T   T   T
  0.442808            0.277226            0.36671              T   T   T
  0.7838              0.732264            0.493807             T   T   T
  0.411727            0.866625            0.041478             T   T   T
  0.614778            0.660831            0.233479             T   T   T
  0.402687            0.0544490000000001  0.272619             T   T   T
  0.434377            0.16055             0.169136             T   T   T
  0.873139            0.98209             0.122754             T   T   T
  0.875239            0.944116            0.264702             T   T   T
  0.122287            0.241442            0.229989             T   T   T
  0.034534            0.0266310000000001  0.032811             T   T   T
  0.084059            0.209649            0.346147             T   T   T
  0.154317            0.375879            0.115023             T   T   T
  0.312401            0.619358            0.291005             T   T   T
  0.731407            0.976751            0.391825             T   T   T
  0.212916            0.874608            0.125244             T   T   T
  0.649169            0.18017             0.007068             T   T   T
  0.772218            0.328022            0.179149             T   T   T
  0.7064              0.315554            0.297056             T   T   T
  0.319105            0.0793740000000001  0.448806             T   T   T
  0.732535            0.487896            0.410525             T   T   T
  0.108309            0.646059            0.447403             T   T   T
  0.583265            0.725719            0.133202             T   T   T
