zjw uspex generated structure opt
1.0000
       5.908759     6.26668361329e-16       0.0     
         0.0        5.1171362133   -2.95438008931
         0.0            0.0         21.486398  
    P     Ni
    14    14
Selective dynamics
Direct
  0.189604            0.0952060000000001  0.115498             T   T   T
  0.530055            0.96962             0.213769             T   T   T
  0.0869050000000001  0.970962            0.273166             T   T   T
  0.189039            0.812494            0.000387000000000101   T   T   T
  0.645868            0.770131            0.026114             T   T   T
  0.687418            0.607338            0.340196             T   T   T
  0.283071            0.880415            0.382631             T   T   T
  0.231052            0.571781            0.240852             T   T   T
  0.769569            0.166163            0.068335             T   T   T
  0.068384            0.221773            0.429992             T   T   T
  0.472899            0.226868            0.012343             T   T   T
  0.322374            0.780561            0.107682             T   T   T
  0.716018            0.99847             0.361489             T   T   T
  0.698108            0.528941            0.161323             T   T   T
  0.243591            0.394726            0.048962             T   T   T
  0.86938             0.935384            0.181274             T   T   T
  0.908405            0.686911            0.078384             T   T   T
  0.00901400000000002  0.403296            0.151795             T   T   T
  0.278489            0.412985            0.327417             T   T   T
  0.94473             0.464496            0.369629             T   T   T
  0.385021            0.650584            0.444849             T   T   T
  0.875026            0.794676            0.435777             T   T   T
  0.880372            0.180464            0.27134              T   T   T
  0.485655            0.155119            0.304218             T   T   T
  0.484479            0.310545            0.413869             T   T   T
  0.344642            0.263543            0.204872             T   T   T
  0.886746            0.404168            0.484265             T   T   T
  0.857539            0.565598            0.253483             T   T   T
