zjw uspex generated structure opt
1.0000
       6.874149         0.0            0.0     
         0.0          6.874149         0.0     
         0.0            0.0         13.748298  
    P     Ni
    14    14
Selective dynamics
Direct
  0.254319            0.275435            0.1255               T   T   T
  0.138598            0.863336            0.389103             T   T   T
  0.726325            0.313804            0.347203             T   T   T
  0.720426            0.702602            0.165298             T   T   T
  0.721846            0.699871            0.358397             T   T   T
  0.696542            0.331647            0.169183             T   T   T
  0.29562             0.699859            0.154593             T   T   T
  0.211017            0.201511            0.36825              T   T   T
  0.660467            0.0563990000000001  0.497264             T   T   T
  0.965228            0.998059            0.165877             T   T   T
  0.0365090000000003  0.277909            0.003569             T   T   T
  0.194617            0.499515            0.278678             T   T   T
  0.458333            0.541661            0.423611             T   T   T
  0.576147            0.0131660000000002  0.215445             T   T   T
  0.733705            0.380349            0.013261             T   T   T
  0.22652             0.674482            0.002159             T   T   T
  0.455468            0.957406            0.380223             T   T   T
  0.38448             0.966087            0.075194             T   T   T
  0.997866            0.750902            0.259605             T   T   T
  0.987852            0.265322            0.246653             T   T   T
  0.412629            0.262967            0.483553             T   T   T
  0.6438              0.7327              0.012393             T   T   T
  0.254626            0.00149             0.236133             T   T   T
  0.806092            0.003364            0.344971             T   T   T
  0.991057            0.53051             0.120583             T   T   T
  0.972493            0.520765            0.399284             T   T   T
  0.959076            0.955007            0.01233              T   T   T
  0.51283             0.537792            0.260488             T   T   T
