zjw uspex generated structure opt
1.0000
     6.7080443409   1.37073988226   1.77022479594
         0.0        6.84666341817   1.77022504626
         0.0            0.0         14.143619  
    P     Ni
    14    14
Selective dynamics
Direct
  0.433203            0.955794999999999   0.132648             T   T   T
  0.250108            0.450117            0.471351             T   T   T
  0.9817              0.23715             0.219108             T   T   T
  0.762652            0.0309779999999999  0.281287             T   T   T
  0.549122            0.748521            0.028771             T   T   T
  0.045286            0.570286            0.366393             T   T   T
  0.264002            0.792343            0.321433             T   T   T
  0.654378            0.270814            0.381141             T   T   T
  0.755201            0.633351999999999   0.145488             T   T   T
  0.366709            0.244668            0.355174             T   T   T
  0.729316            0.345643            0.118878             T   T   T
  0.20839             0.736186            0.178629             T   T   T
  0.107229            0.10597             0.019754             T   T   T
  0.892772            0.89157             0.481938             T   T   T
  0.587033            0.812143            0.255693             T   T   T
  0.508229            0.578543            0.409994             T   T   T
  0.830029            0.493271            0.290773             T   T   T
  0.508024            0.170761            0.209591             T   T   T
  0.421348            0.491161            0.0911869999999999   T   T   T
  0.188736            0.413009            0.245051             T   T   T
  0.764509            0.76233             0.393402             T   T   T
  0.241268            0.234243            0.105939             T   T   T
  0.386549            0.93343             0.416959             T   T   T
  0.864231            0.358496            0.461524             T   T   T
  0.907835            0.912073            0.138614             T   T   T
  0.086556            0.0900789999999999  0.364387             T   T   T
  0.642652            0.137787            0.038124             T   T   T
  0.066363            0.613913            0.083437             T   T   T
