zjw uspex generated structure opt
1.0000
       5.908759     6.26668361329e-16       0.0     
         0.0        5.1171362133   -2.95438008931
         0.0            0.0         21.486398  
    P     Ni
    14    14
Selective dynamics
Direct
  0.186313            0.372924            0.134434             T   T   T
  0.568248            0.94634             0.139911             T   T   T
  0.135815            0.729096            0.134062             T   T   T
  0.721101            0.637689            0.401931             T   T   T
  0.395533            0.20819             0.374789             T   T   T
  0.750374            0.189375            0.348648             T   T   T
  0.562686            0.048692            0.481474             T   T   T
  0.905395            0.435129            0.455771             T   T   T
  0.445352            0.505697            0.051197             T   T   T
  0.488956            0.551767            0.223954             T   T   T
  0.468624            0.917109            0.249959             T   T   T
  0.955477            0.45579             0.275745             T   T   T
  0.605334            0.250659            0.080267             T   T   T
  0.316842            0.636319            0.356628             T   T   T
  0.97095             0.251575            0.03829              T   T   T
  0.936403            0.623511            0.047995             T   T   T
  0.248278            0.076029            0.023944             T   T   T
  0.901295            0.713308            0.214221             T   T   T
  0.327908            0.133775            0.194861             T   T   T
  0.877926            0.132369            0.212564             T   T   T
  0.204897            0.840439            0.427087             T   T   T
  0.31282             0.492445            0.453448             T   T   T
  0.741858            0.818055            0.494447             T   T   T
  0.212674            0.2921              0.29649              T   T   T
  0.710343            0.825493            0.311893             T   T   T
  0.142963            0.854066            0.311842             T   T   T
  0.92977             0.946723            0.116737             T   T   T
  0.987202            0.090175            0.404759             T   T   T
