zjw uspex generated structure opt
1.0000
         6.05           0.0            0.0     
         0.0           4.881           0.0     
         0.0            0.0            22.0    
    P     Ni
    14    14
Selective dynamics
Direct
  0.636642            0.0371210000000001  0.17147              T   T   T
  0.050495            0.051328            0.100312             T   T   T
  0.05485             0.396343            0.029183             T   T   T
  0.457944            0.375204            0.356815             T   T   T
  0.279967            0.0138450000000001  0.005977             T   T   T
  0.439358            0.554062            0.493711             T   T   T
  0.682251            0.838615            0.386372             T   T   T
  0.156247            0.102065            0.350167             T   T   T
  0.093824            0.834767            0.246939             T   T   T
  0.774666            0.907205            0.040376             T   T   T
  0.557942            0.573355            0.237458             T   T   T
  0.077937            0.578204            0.163313             T   T   T
  0.871305            0.410129            0.272565             T   T   T
  0.652092            0.655212            0.118512             T   T   T
  0.2816              0.695754            0.081372             T   T   T
  0.535906            0.233667            0.0631               T   T   T
  0.402025            0.372911            0.161444             T   T   T
  0.564342            0.175332            0.450919             T   T   T
  0.812989            0.25126             0.362872             T   T   T
  0.320123            0.823321            0.415917             T   T   T
  0.183535            0.380611            0.427612             T   T   T
  0.950813            0.019154            0.457695             T   T   T
  0.801634            0.567667            0.467122             T   T   T
  0.378158            0.749585            0.310634             T   T   T
  0.983977            0.708528            0.343986             T   T   T
  0.982579            0.179131            0.19293              T   T   T
  0.725382            0.964991            0.268729             T   T   T
  0.333409            0.207125            0.26438              T   T   T
