zjw uspex generated structure opt
1.0000
         6.05           0.0            0.0     
         0.0           4.881           0.0     
         0.0            0.0            22.0    
    P     Ni
    14    14
Selective dynamics
Direct
  0.202077            0.291352            0.330229             T   T   T
  0.310166            0.375108            0.464536             T   T   T
  0.091316            0.232108            0.235497             T   T   T
  0.187879            0.410591            0.106025             T   T   T
  0.157716            0.771572            0.164467             T   T   T
  0.105665            0.818721            0.385722             T   T   T
  0.86114             0.999863            0.135596             T   T   T
  0.644754            0.477957            0.140798             T   T   T
  0.614116            0.92689             0.408438             T   T   T
  0.921989            0.433961            0.388559             T   T   T
  0.733772            0.514462            0.306037             T   T   T
  0.033608            0.660677            0.497773             T   T   T
  0.46843             0.908859            0.498273             T   T   T
  0.49374             0.874608            0.24864              T   T   T
  0.182566            0.649191            0.259291             T   T   T
  0.157885            0.0452730000000001  0.034857             T   T   T
  0.486083            0.291135            0.056032             T   T   T
  0.773651            0.875087            0.046777             T   T   T
  0.536025            0.151662            0.325555             T   T   T
  0.424253            0.656729            0.349463             T   T   T
  0.915812            0.95868             0.306538             T   T   T
  0.363923            0.154789            0.172255             T   T   T
  0.807407            0.687073            0.215768             T   T   T
  0.673384            0.532336            0.464188             T   T   T
  0.91805             0.088455            0.449912             T   T   T
  0.733492            0.197382            0.220395             T   T   T
  0.873099            0.369415            0.063652             T   T   T
  0.424306            0.772898            0.095767             T   T   T
