zjw uspex generated structure opt
1.0000
         6.05           0.0            0.0     
         0.0           4.881           0.0     
         0.0            0.0            22.0    
    P     Ni
    14    14
Selective dynamics
Direct
  0.189933            0.481895            0.281147             T   T   T
  0.939892            0.910851            0.368831             T   T   T
  0.71527             0.0542640000000001  0.297547             T   T   T
  0.412083            0.468726            0.428797             T   T   T
  0.979523            0.43026             0.485584             T   T   T
  0.206409            0.84165             0.198839             T   T   T
  0.442965            0.298197            0.061196             T   T   T
  0.09369             0.271246            0.178197             T   T   T
  0.618992            0.550226            0.173615             T   T   T
  0.064304            0.945956            0.060461             T   T   T
  0.591937            0.0574360000000001  0.13528              T   T   T
  0.528815            0.0180850000000001  0.48529              T   T   T
  0.824417            0.645544            0.094064             T   T   T
  0.779095            0.530963            0.341627             T   T   T
  0.630174            0.589167            0.01247              T   T   T
  0.511429            0.852678            0.382443             T   T   T
  0.357523            0.72777             0.108069             T   T   T
  0.09797             0.365004            0.081204             T   T   T
  0.888935            0.889442            0.469504             T   T   T
  0.201404            0.931726            0.301513             T   T   T
  0.178718            0.146308            0.41997              T   T   T
  0.531461            0.698783            0.266504             T   T   T
  0.83871             0.929345            0.204786             T   T   T
  0.436937            0.203775            0.224049             T   T   T
  0.855115            0.416385            0.24651              T   T   T
  0.255163            0.729926            0.492303             T   T   T
  0.737365            0.272154            0.420595             T   T   T
  0.442398            0.316841            0.338028             T   T   T
