zjw uspex generated structure opt
1.0000
         6.05           0.0            0.0     
         0.0           4.881           0.0     
         0.0            0.0            22.0    
    P     Ni
    14    14
Selective dynamics
Direct
  0.199515            0.48225             0.342948             T   T   T
  0.683593            0.314731            0.233583             T   T   T
  0.331288            0.322537            0.48555              T   T   T
  0.662355            0.883433            0.274985             T   T   T
  0.314932            0.910727            0.452164             T   T   T
  0.873929            0.803962            0.185417             T   T   T
  0.245596            0.120697            0.259279             T   T   T
  0.777789            0.983265            0.031033             T   T   T
  0.22329             0.136035            0.133333             T   T   T
  0.720761            0.554071            0.385211             T   T   T
  0.283196            0.625429            0.135368             T   T   T
  0.734422            0.0768680000000001  0.396902             T   T   T
  0.813546            0.517858            0.065018             T   T   T
  0.0335669999999999  0.553991            0.477074             T   T   T
  0.019768            0.777566            0.280398             T   T   T
  0.107919            0.828707            0.056258             T   T   T
  0.876267            0.143553            0.120829             T   T   T
  0.032291            0.806344            0.393229             T   T   T
  0.519845            0.977423            0.179075             T   T   T
  0.914319            0.254233            0.312508             T   T   T
  0.487515            0.208924            0.070421             T   T   T
  0.437659            0.826123            0.359028             T   T   T
  0.489127            0.70406             0.029169             T   T   T
  0.512037            0.289603            0.325041             T   T   T
  0.628351            0.517521            0.148965             T   T   T
  0.705617            0.35308             0.474598             T   T   T
  0.041917            0.41491             0.202806             T   T   T
  0.391343            0.602432            0.24562              T   T   T
