zjw uspex generated structure opt
1.0000
         6.05           0.0            0.0     
         0.0           4.881           0.0     
         0.0            0.0            22.0    
    P     Ni
    14    14
Selective dynamics
Direct
  0.748495            0.978739            0.11445              T   T   T
  0.96218             0.547902            0.350481             T   T   T
  0.152456            0.697255            0.072741             T   T   T
  0.780527            0.841831            0.453064             T   T   T
  0.265851            0.214244            0.481528             T   T   T
  0.531465            0.728689            0.03015              T   T   T
  0.218101            0.806115            0.444666             T   T   T
  0.00224299999999993  0.0175900000000001  0.318783             T   T   T
  0.564558            0.338756            0.347916             T   T   T
  0.46765             0.874699            0.265778             T   T   T
  0.065071            0.982301            0.168809             T   T   T
  0.0310959999999999  0.30574             0.240089             T   T   T
  0.437791            0.227187            0.093969             T   T   T
  0.5896              0.467072            0.178962             T   T   T
  0.771899            0.529971            0.092375             T   T   T
  0.643567            0.179174            0.013622             T   T   T
  0.680519            0.875795            0.354421             T   T   T
  0.507661            0.532625            0.438289             T   T   T
  0.841617            0.239859            0.413061             T   T   T
  0.28904             0.741908            0.34983              T   T   T
  0.068137            0.157089            0.071242             T   T   T
  0.22751             0.463199            0.154865             T   T   T
  0.751159            0.578678            0.267398             T   T   T
  0.140337            0.724086            0.245756             T   T   T
  0.726608            0.064441            0.214429             T   T   T
  0.990155            0.525195            0.492943             T   T   T
  0.39608             0.327831            0.259895             T   T   T
  0.232358            0.238092            0.379018             T   T   T
