zjw uspex generated structure opt
1.0000
       5.908759     6.26668361329e-16       0.0     
         0.0        5.1171362133   -2.95438008931
         0.0            0.0         21.486398  
    P     Ni
    14    14
Selective dynamics
Direct
  0.95967             0.751622            0.152167             T   T   T
  0.143923            0.191086            0.183044             T   T   T
  0.558678            0.913734            0.196951             T   T   T
  0.156251            0.879557            0.441898             T   T   T
  0.436731            0.363612            0.419555             T   T   T
  0.841837            0.0266739999999999  0.441955             T   T   T
  0.0829519999999999  0.395135            0.303516             T   T   T
  0.640786            0.941122            0.352477             T   T   T
  0.93953             0.688516            0.322666             T   T   T
  0.822718            0.385336            0.071271             T   T   T
  0.544742            0.954891            0.094207             T   T   T
  0.239827            0.270452            0.062283             T   T   T
  0.476778            0.720663            0.494232             T   T   T
  0.466094            0.213347            0.251541             T   T   T
  0.156947            0.860438            0.0589580000000001   T   T   T
  0.187744            0.533795            0.131289             T   T   T
  0.631662            0.631476            0.083915             T   T   T
  0.511173            0.520205            0.318756             T   T   T
  0.314907            0.0326039999999999  0.345573             T   T   T
  0.78939             0.358784            0.386878             T   T   T
  0.574849            0.556216            0.197828             T   T   T
  0.178331            0.787585            0.240039             T   T   T
  0.861025            0.326487            0.213772             T   T   T
  0.535374            0.133791            0.489343             T   T   T
  0.052914            0.393166            0.490721             T   T   T
  0.785425            0.613942            0.481825             T   T   T
  0.87205             0.967579            0.269993             T   T   T
  0.269809            0.618103            0.393922             T   T   T
