zjw uspex generated structure opt
1.0000
         6.05           0.0            0.0     
         0.0           4.881           0.0     
         0.0            0.0            22.0    
    P     Ni
    14    14
Selective dynamics
Direct
  0.589495            0.196324            0.435602             T   T   T
  0.825029            0.249995            0.17057              T   T   T
  0.165068            0.789158            0.189014             T   T   T
  0.500195            0.443043            0.355106             T   T   T
  0.863099            0.727438            0.442655             T   T   T
  0.907474            0.23214             0.032517             T   T   T
  0.561248            0.0149130000000001  0.256427             T   T   T
  0.342478            0.443118            0.127071             T   T   T
  0.406548            0.984138            0.056836             T   T   T
  0.222397            0.590236            0.430956             T   T   T
  0.238713            0.334961            0.292182             T   T   T
  0.624667            0.485965            0.063321             T   T   T
  0.748139            0.513595            0.280971             T   T   T
  0.837164            0.976224            0.358791             T   T   T
  0.996924            0.552325            0.107697             T   T   T
  0.239335            0.8456              0.285639             T   T   T
  0.741314            0.899544            0.079693             T   T   T
  0.478758            0.048433            0.160545             T   T   T
  0.108374            0.849118            0.010374             T   T   T
  0.99651             0.557051            0.351075             T   T   T
  0.44765             0.50689             0.219862             T   T   T
  0.923811            0.131714            0.266782             T   T   T
  0.270602            0.357529            0.016264             T   T   T
  0.956037            0.243282            0.436073             T   T   T
  0.106724            0.077512            0.113387             T   T   T
  0.798981            0.755349            0.195982             T   T   T
  0.459145            0.872476            0.375742             T   T   T
  0.526688            0.733298            0.482577             T   T   T
