zjw uspex generated structure opt
1.0000
     6.7080443409   1.37073988226   1.77022479594
         0.0        6.84666341817   1.77022504626
         0.0            0.0         14.143619  
    P     Ni
    14    14
Selective dynamics
Direct
  0.407246            0.869331999999999   0.083388             T   T   T
  0.166217            0.456355            0.479705             T   T   T
  0.112505            0.00548800000000004  0.243858             T   T   T
  0.745912            0.958088999999999   0.229348             T   T   T
  0.612144            0.632157            0.018928             T   T   T
  0.969816            0.448266            0.373721             T   T   T
  0.497407            0.847644            0.330927             T   T   T
  0.715899            0.2681              0.417606             T   T   T
  0.932622            0.407155            0.168961             T   T   T
  0.386678            0.37488             0.324706             T   T   T
  0.624804            0.263769            0.187774             T   T   T
  0.185801            0.59388             0.181537             T   T   T
  0.268352            0.01177             0.431351             T   T   T
  0.875764            0.776386            0.483783             T   T   T
  0.344394            0.711066999999999   0.257433             T   T   T
  0.463354            0.561067            0.41865              T   T   T
  0.179951            0.735451            0.021216             T   T   T
  0.428019            0.039808            0.185728             T   T   T
  0.414675            0.390414            0.091469             T   T   T
  0.671855            0.476363            0.272056             T   T   T
  0.963711            0.763873            0.314259             T   T   T
  0.135695            0.187143            0.095667             T   T   T
  0.166849            0.27938             0.267975             T   T   T
  0.826411            0.347404            0.03753              T   T   T
  0.877796            0.723376999999999   0.149533             T   T   T
  0.985139            0.039963            0.398833             T   T   T
  0.722565            0.033954            0.055375             T   T   T
  0.433144            0.179485            0.472775             T   T   T
