zjw uspex generated structure opt
1.0000
         6.05           0.0            0.0     
         0.0           4.881           0.0     
         0.0            0.0            22.0    
    P     Ni
    14    14
Selective dynamics
Direct
  0.183438            0.405092            0.375609             T   T   T
  0.811381            0.446542            0.226751             T   T   T
  0.262935            0.30112             0.492967             T   T   T
  0.682447            0.934293            0.274309             T   T   T
  0.371823            0.875038            0.464086             T   T   T
  0.622685            0.982295            0.177092             T   T   T
  0.216639            0.089193            0.268847             T   T   T
  0.819062            0.00819200000000002  0.042123             T   T   T
  0.249858            0.163753            0.136435             T   T   T
  0.780842            0.620057            0.377073             T   T   T
  0.233078            0.736341            0.121422             T   T   T
  0.685795            0.0579450000000001  0.410671             T   T   T
  0.792429            0.477166            0.042415             T   T   T
  0.437479            0.556889            0.261548             T   T   T
  0.012303            0.728327            0.295618             T   T   T
  0.09973             0.702417            0.025997             T   T   T
  0.87559             0.231387            0.132998             T   T   T
  0.047907            0.900507            0.409624             T   T   T
  0.874382            0.725835            0.127268             T   T   T
  0.907478            0.236527            0.316872             T   T   T
  0.491555            0.242884            0.066247             T   T   T
  0.413926            0.739436            0.361533             T   T   T
  0.505261            0.745421            0.051379             T   T   T
  0.495329            0.230634            0.331088             T   T   T
  0.522961            0.527046            0.162527             T   T   T
  0.560515            0.464499            0.453984             T   T   T
  0.152743            0.463657            0.203686             T   T   T
  0.947054            0.363867            0.452262             T   T   T
