xyz P Ni                                
   1.00000000000000     
     5.0740428407730196    2.9294999999999898    0.0000000000000000
     0.0000000000000000    5.8589999999999902    0.0000000000000000
     0.0000000000000000    0.0000000000000000   15.0612784299999998
   P    Ni
     6    12
Selective dynamics
Direct
 -0.0000118448383948  0.4694961588298551 -0.0066556278613044   T   T   T
  0.6666215920287806  0.1360520357870806  0.1048865032345374   T   T   T
  0.3333469746486913  0.8026836793810362  0.1048819812172856   T   T   T
 -0.0000094026294470  0.4693220551662285  0.2250483252387288   T   T   T
  0.6665205417368454  0.1362797792657162  0.3377231736439519   T   T   T
  0.3334407997362558  0.8028224242751567  0.3377181304232628   T   T   T
  0.3840159375390421  0.0853894875047910  0.0155186578345662   T   T   T
  0.6159651488829269  0.4694073796033898  0.0155188777291860   T   T   T
  0.9999807786966517  0.8534630928293158  0.0155178994743786   T   T   T
  0.7417831334361595  0.7275752934434684  0.1145575604340151   T   T   T
  0.2581939788342085  0.4693753755527562  0.1145555367419629   T   T   T
 -0.0000056653100254  0.2112516144546440  0.1145306666521477   T   T   T
  0.3989083158020273  0.0702639417368776  0.2217758950988623   T   T   T
  0.6010705501115958  0.4691566260720928  0.2217746624516394   T   T   T
 -0.0000176793791618  0.8685669199541158  0.2217597015744689   T   T   T
  0.7339460612114432  0.7354203587408704  0.3254907200828880   T   T   T
  0.2660169420876020  0.4693927299989796  0.3254935697772837   T   T   T
 -0.0000187538510736  0.2034775245142925  0.3255676090989707   T   T   T
 
  0.00000000E+00  0.00000000E+00  0.00000000E+00
  0.00000000E+00  0.00000000E+00  0.00000000E+00
  0.00000000E+00  0.00000000E+00  0.00000000E+00
  0.00000000E+00  0.00000000E+00  0.00000000E+00
  0.00000000E+00  0.00000000E+00  0.00000000E+00
  0.00000000E+00  0.00000000E+00  0.00000000E+00
  0.00000000E+00  0.00000000E+00  0.00000000E+00
  0.00000000E+00  0.00000000E+00  0.00000000E+00
  0.00000000E+00  0.00000000E+00  0.00000000E+00
  0.00000000E+00  0.00000000E+00  0.00000000E+00
  0.00000000E+00  0.00000000E+00  0.00000000E+00
  0.00000000E+00  0.00000000E+00  0.00000000E+00
  0.00000000E+00  0.00000000E+00  0.00000000E+00
  0.00000000E+00  0.00000000E+00  0.00000000E+00
  0.00000000E+00  0.00000000E+00  0.00000000E+00
  0.00000000E+00  0.00000000E+00  0.00000000E+00
  0.00000000E+00  0.00000000E+00  0.00000000E+00
  0.00000000E+00  0.00000000E+00  0.00000000E+00
