zjw uspex generated structure opt
1.0000
         6.05           0.0            0.0     
         0.0           4.881           0.0     
         0.0            0.0            22.0    
    P     Ni
    14    14
Selective dynamics
Direct
  0.37745             0.0531870000000001  0.218799             T   T   T
  0.541136            0.112812            0.030164             T   T   T
  0.782022            0.593151            0.369469             T   T   T
  0.908059            0.911203            0.489543             T   T   T
  0.434749            0.338673            0.422953             T   T   T
  0.168111            0.53315             0.477473             T   T   T
  0.124433            0.486247            0.297846             T   T   T
  0.409701            0.624459            0.244064             T   T   T
  0.23826             0.831761            0.132543             T   T   T
  0.944086            0.981222            0.35719              T   T   T
  0.109664            0.398968            0.138662             T   T   T
  0.718702            0.592681            0.09486              T   T   T
  0.734463            0.005385            0.255225             T   T   T
  0.738293            0.0682820000000001  0.114338             T   T   T
  0.906245            0.756995            0.174408             T   T   T
  0.663404            0.53072             0.497633             T   T   T
  0.35149             0.46859             0.066803             T   T   T
  0.226887            0.9226              0.036738             T   T   T
  0.914024            0.284548            0.429896             T   T   T
  0.252234            0.081019            0.315828             T   T   T
  0.625703            0.184833            0.342935             T   T   T
  0.597328            0.928831            0.437874             T   T   T
  0.0308830000000001  0.197385            0.223146             T   T   T
  0.961711            0.288341            0.049844             T   T   T
  0.428775            0.645133            0.34769              T   T   T
  0.539641            0.387448            0.167908             T   T   T
  0.759067            0.541099            0.268286             T   T   T
  0.207809            0.932513            0.424981             T   T   T
