zjw uspex generated structure opt
1.0000
         6.05           0.0            0.0     
         0.0           4.881           0.0     
         0.0            0.0            22.0    
    P     Ni
    14    14
Selective dynamics
Direct
  0.643662            0.569414            0.444593             T   T   T
  0.981261            0.052566            0.450023             T   T   T
  0.311497            0.303223            0.217699             T   T   T
  0.921932            0.404491            0.099998             T   T   T
  0.606547            0.285624            0.356059             T   T   T
  0.111783            0.171219            0.358996             T   T   T
  0.278824            0.0538330000000001  0.010522             T   T   T
  0.0389560000000001  0.616994            0.465618             T   T   T
  0.691053            0.089755            0.069053             T   T   T
  0.061032            0.0217              0.172808             T   T   T
  0.57109             0.800429            0.184316             T   T   T
  0.900984            0.810827            0.283378             T   T   T
  0.291772            0.813707            0.33064              T   T   T
  0.473683            0.616579            0.100042             T   T   T
  0.918318            0.539305            0.363128             T   T   T
  0.317256            0.496503            0.396599             T   T   T
  0.27132             0.245855            0.10444              T   T   T
  0.637343            0.240289            0.164099             T   T   T
  0.364569            0.517143            0.00754              T   T   T
  0.618743            0.105726            0.470579             T   T   T
  0.545769            0.0459620000000001  0.270335             T   T   T
  0.964692            0.249669            0.2625               T   T   T
  0.614881            0.536709            0.270207             T   T   T
  0.758371            0.684252            0.035661             T   T   T
  0.131607            0.773445            0.083921             T   T   T
  0.616307            0.851158            0.369838             T   T   T
  0.250016            0.732917            0.235325             T   T   T
  0.906329            0.621365            0.187413             T   T   T
