zjw uspex generated structure opt
1.0000
       5.908759     6.26668361329e-16       0.0     
         0.0        5.1171362133   -2.95438008931
         0.0            0.0         21.486398  
    P     Ni
    14    14
Selective dynamics
Direct
  0.371696            0.146534            0.190631             T   T   T
  0.079845            0.419665            0.173693             T   T   T
  0.796461            0.778616            0.212718             T   T   T
  0.45078             0.513112            0.358078             T   T   T
  0.450487            0.922878            0.299135             T   T   T
  0.918864            0.57107             0.329572             T   T   T
  0.783799            0.658991            0.063643             T   T   T
  0.301457            0.895516            0.0446               T   T   T
  0.952573            0.20724             0.032955             T   T   T
  0.691741            0.05775             0.441076             T   T   T
  0.426449            0.676798            0.098207             T   T   T
  0.307235            0.316976            0.471909             T   T   T
  0.030994            0.800801            0.464272             T   T   T
  0.887682            0.059239            0.28977              T   T   T
  0.0814650000000001  0.790373            0.13858              T   T   T
  0.279254            0.264667            0.101123             T   T   T
  0.821968            0.99148             0.12205              T   T   T
  0.041084            0.303726            0.378972             T   T   T
  0.834407            0.845817            0.377293             T   T   T
  0.322419            0.056736            0.392856             T   T   T
  0.334377            0.683734            0.444377             T   T   T
  0.733838            0.43543             0.419187             T   T   T
  0.188208            0.500549            0.274007             T   T   T
  0.453456            0.815096            0.194529             T   T   T
  0.618567            0.279525            0.021762             T   T   T
  0.759877            0.407631            0.239746             T   T   T
  0.714386            0.331748            0.129437             T   T   T
  0.328455            0.202589            0.288469             T   T   T
