zjw uspex generated structure opt
1.0000
         6.05           0.0            0.0     
         0.0           4.881           0.0     
         0.0            0.0            22.0    
    P     Ni
    14    14
Selective dynamics
Direct
  0.420952            0.563887            0.479905             T   T   T
  0.654778            0.807544            0.260536             T   T   T
  0.937566            0.378319            0.048155             T   T   T
  0.395361            0.176831            0.364372             T   T   T
  0.220699            0.160758            0.010322             T   T   T
  0.738986            0.352685            0.194006             T   T   T
  0.246288            0.808383            0.317707             T   T   T
  0.864377            0.446879            0.359874             T   T   T
  0.377372            0.160925            0.139456             T   T   T
  0.901071            0.884184            0.383104             T   T   T
  0.368318            0.59509             0.132903             T   T   T
  0.893413            0.950162            0.084058             T   T   T
  0.261139            0.253932            0.252476             T   T   T
  0.622668            0.0176130000000001  0.439462             T   T   T
  0.932408            0.0650800000000001  0.289607             T   T   T
  0.558996            0.107759            0.04602              T   T   T
  0.993005            0.559806            0.259982             T   T   T
  0.199288            0.863426            0.436397             T   T   T
  0.989606            0.582427            0.139037             T   T   T
  0.60523             0.364233            0.28869              T   T   T
  0.198128            0.747757            0.049266             T   T   T
  0.497129            0.611873            0.380546             T   T   T
  0.62741             0.617968            0.061047             T   T   T
  0.142024            0.364784            0.422758             T   T   T
  0.0311889999999999  0.101746            0.174042             T   T   T
  0.656749            0.883158            0.158777             T   T   T
  0.323642            0.82019             0.218536             T   T   T
  0.7597              0.429093            0.461856             T   T   T
