zjw uspex generated structure opt
1.0000
         6.05           0.0            0.0     
         0.0           4.881           0.0     
         0.0            0.0            22.0    
    P     Ni
    14    14
Selective dynamics
Direct
  0.849519            0.204041            0.050142             T   T   T
  0.973206            0.844806            0.226848             T   T   T
  0.653904            0.661743            0.002661             T   T   T
  0.48016             0.748685            0.419575             T   T   T
  0.68806             0.480834            0.140424             T   T   T
  0.655642            0.0573020000000001  0.369649             T   T   T
  0.318046            0.740354            0.158334             T   T   T
  0.292839            0.307708            0.200875             T   T   T
  0.313631            0.339279            0.050821             T   T   T
  0.120813            0.366032            0.325                T   T   T
  0.625352            0.587327            0.293166             T   T   T
  0.00070000000000007  0.55652             0.423178             T   T   T
  0.937782            0.405567            0.205975             T   T   T
  0.283572            0.054758            0.472689             T   T   T
  0.349598            0.783455            0.055078             T   T   T
  0.429939            0.196528            0.290828             T   T   T
  0.012031            0.10671             0.402765             T   T   T
  0.611728            0.851433            0.210726             T   T   T
  0.475387            0.145816            0.126136             T   T   T
  0.703254            0.273283            0.46082              T   T   T
  0.984259            0.846462            0.0006               T   T   T
  0.288564            0.710651            0.273547             T   T   T
  0.362683            0.35322             0.399625             T   T   T
  0.929226            0.744564            0.333801             T   T   T
  0.034684            0.52246             0.094084             T   T   T
  0.73589             0.840122            0.090365             T   T   T
  0.070437            0.03786             0.135481             T   T   T
  0.829192            0.185646            0.284979             T   T   T
