zjw uspex generated structure opt
1.0000
         6.05           0.0            0.0     
         0.0           4.881           0.0     
         0.0            0.0            22.0    
    P     Ni
    14    14
Selective dynamics
Direct
  0.063452            0.764572            0.031284             T   T   T
  0.562601            0.983388            0.007084             T   T   T
  0.969782            0.231734            0.109237             T   T   T
  0.687039            0.808223            0.26894              T   T   T
  0.750003            0.371853            0.235067             T   T   T
  0.418134            0.22998             0.158554             T   T   T
  0.067528            0.812673            0.258635             T   T   T
  0.877647            0.662992            0.118778             T   T   T
  0.724039            0.760546            0.383331             T   T   T
  0.0300260000000001  0.411102            0.434236             T   T   T
  0.447038            0.052697            0.373401             T   T   T
  0.936989            0.264196            0.346967             T   T   T
  0.223811            0.473297            0.30819              T   T   T
  0.430753            0.481144            0.007145             T   T   T
  0.094206            0.424336            0.203414             T   T   T
  0.636471            0.319102            0.080252             T   T   T
  0.276684            0.0887530000000001  0.067157             T   T   T
  0.294297            0.578812            0.096613             T   T   T
  0.733742            0.0102480000000001  0.171                T   T   T
  0.148114            0.931984            0.168432             T   T   T
  0.471704            0.635169            0.20074              T   T   T
  0.379843            0.087396            0.26183              T   T   T
  0.096655            0.873127            0.359435             T   T   T
  0.604549            0.410393            0.325794             T   T   T
  0.363126            0.565106            0.410534             T   T   T
  0.272791            0.097018            0.456321             T   T   T
  0.764084            0.63291             0.479364             T   T   T
  0.899261            0.138896            0.005982             T   T   T
