zjw uspex generated structure opt
1.0000
       5.632137         0.0            0.0     
         0.0          5.632137         0.0     
         0.0            0.0         20.480498  
    P     Ni
    14    14
Selective dynamics
Direct
  0.398416            0.429294            0.173741             T   T   T
  0.0330290000000001  0.569182            0.182826             T   T   T
  0.568295            0.225958            0.4531               T   T   T
  0.934199            0.758549            0.009977             T   T   T
  0.23482             0.362561            0.39107              T   T   T
  0.63251             0.74098             0.406905             T   T   T
  0.127848            0.996673999999999   0.360972             T   T   T
  0.38352             0.533333            0.023138             T   T   T
  0.899236999999999   0.24084             0.277479             T   T   T
  0.10781             0.833242            0.110779             T   T   T
  0.333551            0.545456            0.272709             T   T   T
  0.7922              0.966736999999999   0.166997             T   T   T
  0.633284            0.0151970000000001  0.041195             T   T   T
  0.13262             0.270828            0.061825             T   T   T
  0.386295            0.0871790000000001  0.126635             T   T   T
  0.112597            0.917711            0.239612             T   T   T
  0.003966            0.598983            0.322291             T   T   T
  0.68501             0.682872            0.229047             T   T   T
  0.536722            0.143727            0.241904             T   T   T
  0.769589            0.394748            0.038265             T   T   T
  0.253856            0.726996            0.43773              T   T   T
  0.601837            0.435062            0.337085             T   T   T
  0.034265            0.100861            0.467509             T   T   T
  0.759766            0.071732            0.370438             T   T   T
  0.441622            0.853162            0.320965             T   T   T
  0.883079            0.47345             0.430325             T   T   T
  0.76173             0.337821            0.151388             T   T   T
  0.548894            0.704134            0.106782             T   T   T
